generated by pypospack                  
   4.98831000000000     
     1.4113423589786780    0.0041671102145959    0.0144460717887056
     0.0062334345864376    2.0629040669790526   -0.0002636925299574
     0.0209841431152702   -0.0003219386417330    2.0681055728712621
   Nb   Ta   Hf   Zr
     4    10    10    12
Direct
  0.7336459400917210  0.1600675195380459  0.1643030383994927
  0.2593220063027666  0.8283103288752653  0.8494182969873318
  0.5371457670324072  0.3369579740978383  0.0117437872502846
  0.5024682169064137  0.9870022294139110  0.0130850393987542
  0.0037823905765564  0.6764972203533557  0.0115007801439728
  0.7451413990144731  0.8301759526158066  0.1558859430667159
  0.9711136629025241  0.9939036196552848  0.3181929275767127
  0.2492619837669903  0.8375907870405401  0.1675440402940035
  0.7709575906741579  0.1544985177910140  0.5006832285220353
  0.4985104355680233  0.6761905268211674  0.0086532431197257
  0.2187650253912392  0.5047726722344793  0.5010837021885879
  0.0418883654326680  0.6769703669473111  0.6740296232589802
  0.7380190033247106  0.5122215333563094  0.1485933182661844
  0.2214434637892754  0.8374164056443408  0.4822844466010709
  0.4763895424121175 -0.0009999988299392  0.6505777736256863
  0.2910908488706442  0.1724477240345637  0.8549002898363190
  0.0000440544026142  0.9987029102430859  0.9991995374628095
  0.0249788287808486 -0.0001689651117143  0.6833911604087060
 -0.0048059312134571  0.6669664025729384  0.3166894870361930
  0.5153941430792908  0.9934034021576128  0.3357778847309368
  0.4885846294177033  0.3309115640818078  0.6442250156905934
  0.9772042601801835  0.3245866857754438  0.0004032869704175
  0.7522411877145346  0.5116697842920770  0.8359018700716506
  0.4642811953007026  0.6741973397906940  0.6535572287440453
  0.7232716360894355  0.1625698332423470  0.8300909045636018
  0.5114064973453525  0.3365225144276465  0.3401837093574744
  0.0189449080927451  0.3227406086237752  0.6755520215829679
  0.2622602981656824  0.4949402410539188  0.1547299851362105
  0.9709843938847829  0.3392483932989830  0.3244834401188701
  0.4954295595574032  0.6665089408942999  0.3364624904501827
  0.2134003449558863  0.1581756865179270  0.4760603347905726
  0.7824988504891013  0.5133822123351670  0.5241582948601702
  0.7744858966152588  0.8347247037642446  0.5131057201211818
  0.2631714170654817  0.4983619800666562  0.8444928761072219
  0.2587990078331153  0.1632977153280394  0.1661866109108832
  0.7484621801866470  0.8252366670557700  0.8328626623494544
 
  0.00000000E+00  0.00000000E+00  0.00000000E+00
  0.00000000E+00  0.00000000E+00  0.00000000E+00
  0.00000000E+00  0.00000000E+00  0.00000000E+00
  0.00000000E+00  0.00000000E+00  0.00000000E+00
  0.00000000E+00  0.00000000E+00  0.00000000E+00
  0.00000000E+00  0.00000000E+00  0.00000000E+00
  0.00000000E+00  0.00000000E+00  0.00000000E+00
  0.00000000E+00  0.00000000E+00  0.00000000E+00
  0.00000000E+00  0.00000000E+00  0.00000000E+00
  0.00000000E+00  0.00000000E+00  0.00000000E+00
  0.00000000E+00  0.00000000E+00  0.00000000E+00
  0.00000000E+00  0.00000000E+00  0.00000000E+00
  0.00000000E+00  0.00000000E+00  0.00000000E+00
  0.00000000E+00  0.00000000E+00  0.00000000E+00
  0.00000000E+00  0.00000000E+00  0.00000000E+00
  0.00000000E+00  0.00000000E+00  0.00000000E+00
  0.00000000E+00  0.00000000E+00  0.00000000E+00
  0.00000000E+00  0.00000000E+00  0.00000000E+00
  0.00000000E+00  0.00000000E+00  0.00000000E+00
  0.00000000E+00  0.00000000E+00  0.00000000E+00
  0.00000000E+00  0.00000000E+00  0.00000000E+00
  0.00000000E+00  0.00000000E+00  0.00000000E+00
  0.00000000E+00  0.00000000E+00  0.00000000E+00
  0.00000000E+00  0.00000000E+00  0.00000000E+00
  0.00000000E+00  0.00000000E+00  0.00000000E+00
  0.00000000E+00  0.00000000E+00  0.00000000E+00
  0.00000000E+00  0.00000000E+00  0.00000000E+00
  0.00000000E+00  0.00000000E+00  0.00000000E+00
  0.00000000E+00  0.00000000E+00  0.00000000E+00
  0.00000000E+00  0.00000000E+00  0.00000000E+00
  0.00000000E+00  0.00000000E+00  0.00000000E+00
  0.00000000E+00  0.00000000E+00  0.00000000E+00
  0.00000000E+00  0.00000000E+00  0.00000000E+00
  0.00000000E+00  0.00000000E+00  0.00000000E+00
  0.00000000E+00  0.00000000E+00  0.00000000E+00
  0.00000000E+00  0.00000000E+00  0.00000000E+00
