generated by pypospack
   4.98831
  1.403197  -0.002328  -0.001469
 -0.003377   2.056418   0.008523
 -0.002055   0.008389   2.052088
 Ta Hf Nb Zr
 12 11 4 9
Direct
  0.745035   0.833012   0.167931
  0.237156   0.167786   0.504647
  0.038089   0.333275   0.341540
  0.273364   0.498775   0.832994
  0.251419   0.826854   0.151574
  0.487266   0.326132   0.669115
  0.481631   0.324433   0.994425
  0.275227   0.505472   0.503037
  0.492321   0.668712   0.315469
  0.503651   0.998715  -0.000320
  0.495355   0.655117   0.678530
  0.745444   0.822248   0.827014
  0.761236   0.494053   0.170894
  0.249084   0.828694   0.842438
  0.725822   0.828386   0.507356
  0.736250   0.494741   0.837949
  0.230690   0.508549   0.157957
  0.009336   0.680681   0.337224
  0.761576   0.176339   0.488755
  0.460793   0.332143   0.332649
  0.013294   0.994240   0.329445
  0.515593   0.672084   0.007347
  0.509163   0.015126   0.678865
  0.250697   0.165599   0.159465
  0.978645   0.678014   0.002813
  0.731543   0.180296   0.838959
  0.267512   0.162855   0.835541
  0.735875   0.495621   0.491151
  0.988706  -0.000095   0.000482
  0.018628   0.322764   0.985845
  0.010747   0.657519   0.664084
  0.484262   0.000755   0.321382
  0.990136   0.005539   0.674211
  0.281215   0.827462   0.508371
  0.014189   0.337454   0.668501
  0.749045   0.180657   0.172358
