generated by pypospack                  
   4.98831000000000     
     1.4059751789910420    0.0018030788801913    0.0109951566153682
     0.0027578302300647    2.0584845237868445    0.0009077921116316
     0.0158435359686268    0.0008358684448653    2.0672067070070628
   Hf   Nb   Ta   Zr
     9     4    11    12
Direct
  0.4750004616968368  0.0043339490139861  0.6501027423414474
  0.2880660288660927  0.1731700426557976  0.8551593609321757
  0.0010699125480824  0.9957892530212037  0.9974312820038351
  0.0208423125581703  0.9977425662635532  0.6809041892017776
  0.0008760009449041  0.6662971200459117  0.3246830624094414
  0.5104858203312103  0.9941875738762307  0.3314155995163572
  0.4863894320886236  0.3226858516185664  0.6433034898632578
  0.9779682565998588  0.3285145884509971  0.9972840430866482
  0.7455927788772478  0.5120877051233174  0.8347968970360935
  0.7437404361489393  0.1589611666905660  0.1662955023184574
  0.2605970276890335  0.8273110674112276  0.8397489472423572
  0.5404904772210638  0.3361983982208306  0.0136431540050472
  0.5051710754946072  0.9881742400038332  0.0143203514695048
  0.0061916345379384  0.6745092598365556  0.0084935538116396
  0.7496320892949540  0.8290755592523034  0.1565755548498821
  0.9792094566836127  0.9864330775080673  0.3163445252238863
  0.2495105216544680  0.8354412836527512  0.1622280531881280
  0.7742598889488611  0.1512726556039618  0.4950366507592951
  0.4966902756515123  0.6754108478286258  0.0100642395593835
  0.4666984466652955  0.6784801746228732  0.6618950115235380
  0.2405224252181175  0.5163003535370422  0.5111412247281735
  0.0294138064722553  0.6775865408999353  0.6729568436050888
  0.7417367756400522  0.5120522739324117  0.1501388326061308
  0.2367774086274838  0.8276343557241544  0.4978322226179120
  0.7232457166574925  0.1632198189487452  0.8325501163640283
  0.5139903840607026  0.3342548382470744  0.3391189572426030
  0.0140637024650000  0.3280209804914679  0.6713474259512248
  0.2633775259798322  0.4937003264224817  0.1543185206756382
  0.9753541829833193  0.3462687995054943  0.3294342251250061
  0.4968313885731130  0.6660489964633204  0.3350953916917169
  0.2080517280527391  0.1568633304675999  0.4721347045422238
  0.7563933764992381  0.5174742739527298  0.5279005902477628
  0.7586344948758776  0.8341966388158810  0.5105455359012916
  0.2645213601122403  0.5004133687721346  0.8372785653648416
  0.2567023499783037  0.1634071452601277  0.1644662101192113
  0.7418880393029020  0.8264835778582272  0.8340074228750050
 
  0.00000000E+00  0.00000000E+00  0.00000000E+00
  0.00000000E+00  0.00000000E+00  0.00000000E+00
  0.00000000E+00  0.00000000E+00  0.00000000E+00
  0.00000000E+00  0.00000000E+00  0.00000000E+00
  0.00000000E+00  0.00000000E+00  0.00000000E+00
  0.00000000E+00  0.00000000E+00  0.00000000E+00
  0.00000000E+00  0.00000000E+00  0.00000000E+00
  0.00000000E+00  0.00000000E+00  0.00000000E+00
  0.00000000E+00  0.00000000E+00  0.00000000E+00
  0.00000000E+00  0.00000000E+00  0.00000000E+00
  0.00000000E+00  0.00000000E+00  0.00000000E+00
  0.00000000E+00  0.00000000E+00  0.00000000E+00
  0.00000000E+00  0.00000000E+00  0.00000000E+00
  0.00000000E+00  0.00000000E+00  0.00000000E+00
  0.00000000E+00  0.00000000E+00  0.00000000E+00
  0.00000000E+00  0.00000000E+00  0.00000000E+00
  0.00000000E+00  0.00000000E+00  0.00000000E+00
  0.00000000E+00  0.00000000E+00  0.00000000E+00
  0.00000000E+00  0.00000000E+00  0.00000000E+00
  0.00000000E+00  0.00000000E+00  0.00000000E+00
  0.00000000E+00  0.00000000E+00  0.00000000E+00
  0.00000000E+00  0.00000000E+00  0.00000000E+00
  0.00000000E+00  0.00000000E+00  0.00000000E+00
  0.00000000E+00  0.00000000E+00  0.00000000E+00
  0.00000000E+00  0.00000000E+00  0.00000000E+00
  0.00000000E+00  0.00000000E+00  0.00000000E+00
  0.00000000E+00  0.00000000E+00  0.00000000E+00
  0.00000000E+00  0.00000000E+00  0.00000000E+00
  0.00000000E+00  0.00000000E+00  0.00000000E+00
  0.00000000E+00  0.00000000E+00  0.00000000E+00
  0.00000000E+00  0.00000000E+00  0.00000000E+00
  0.00000000E+00  0.00000000E+00  0.00000000E+00
  0.00000000E+00  0.00000000E+00  0.00000000E+00
  0.00000000E+00  0.00000000E+00  0.00000000E+00
  0.00000000E+00  0.00000000E+00  0.00000000E+00
  0.00000000E+00  0.00000000E+00  0.00000000E+00
