generated by pypospack
   4.98831
  1.416766   0.001487   0.009990
  0.002292   2.057642   0.002351
  0.014488   0.002284   2.067279
 Hf Nb Ta Zr
 9 4 11 12
Direct
  0.477238   0.005327   0.648424
  0.285725   0.172926   0.853929
  0.000710   0.995378   0.998657
  0.021782  -0.005234   0.682531
  0.001550   0.667753   0.324128
  0.510332   0.998712   0.335138
  0.487516   0.320348   0.642314
  0.976589   0.331645  -0.001514
  0.738158   0.510722   0.830517
  0.748715   0.158369   0.165865
  0.269107   0.829280   0.836507
  0.542272   0.333178   0.011341
  0.507540   0.990714   0.014050
  0.008148   0.669643   0.006621
  0.737433   0.833875   0.159819
  0.979938   0.984623   0.315947
  0.260867   0.843722   0.166849
  0.779668   0.152660   0.496346
  0.492664   0.675961   0.009120
  0.466369   0.678468   0.660988
  0.241729   0.516777   0.511117
  0.028335   0.676067   0.674956
  0.727956   0.507852   0.154479
  0.233889   0.827031   0.498671
  0.726295   0.162377   0.832053
  0.514345   0.331162   0.341038
  0.012117   0.331777   0.671263
  0.274293   0.486580   0.156416
  0.977853   0.348290   0.327603
  0.493587   0.668229   0.335578
  0.204216   0.157347   0.474379
  0.752282   0.517599   0.524356
  0.760722   0.832697   0.510088
  0.270963   0.497474   0.834857
  0.253968   0.162908   0.163615
  0.735116   0.827765   0.831947
