SYSTEM = automatically generated by mexm
# *********************************OPTIMIZATION*********************************
NPAR = 4                      ! number of bands to be treated in parallel
KPAR = 8                      ! number of kpoints to paralellize
# *****************************STARTING INFORMATION*****************************
ISTART = 0                    ! begin from scratch
ICHARG = 2                    ! Take superposition of atomic charge densities
# ******************************DENSITY OF STATES*******************************
ISMEAR = 1                    ! method of Methfessel-Paxton order 1
SIGMA = 0.15                  ! width of the smearing in eV.
# ***********************************SYMMETRY***********************************
ISYM = 1                      ! symmetry_on
# ***************************ELECTRONIC SCF RELATION****************************
ALGO = Fast                   ! blocked Davidson, followed by RMM_DIIS
PREC = Accurate               ! avoid wrap around errors
LREAL = Auto                  ! unpublished method of G. Kresse
EDIFF = 1e-05                 ! convergence condition for SC-loop in eV
ENCUT = 300.0                 ! Cut-off energy for plane wave basis set in eV
NELM = 70                     ! maximum number of electronic SCF steps
# ***********************SPIN POLARIZATION CONFIGURATION************************
ISPIN = 1                     ! non-spin polarized calculations
# ************************IONIC RELAXATION CONFIGURATION************************
IBRION = 2                    ! ionic relaxation by CG
ISIF = 3                      ! relaxation, ions=T, cellshape=T, cellvolume=T
POTIM = 0.15                  ! scaling factor in relaxation
NSW = 300                     ! maximum number of ionic relaxation steps
EDIFFG = -0.01                ! force convergence requirements in ev A
# *****************************OUTPUT CONFIGURATION*****************************
LWAVE = .FALSE.               ! do not write WAVECAR
LCHARG = .FALSE.              ! no CHGCAR, no CHG
LVTOT = .FALSE.               ! no LOCPOT
