generated by pypospack
   4.98831
  1.410613   0.001112   0.001384
  0.001593   2.070897   0.004252
  0.002017   0.004196   2.058802
 Ta Nb Zr Hf
 5 10 12 9
Direct
  0.734903   0.498638   0.178145
  0.525035   0.665475   0.011635
  0.001036   0.996083   0.330974
  0.042400   0.997101   0.652319
  0.507241   0.673622   0.334913
  0.489968   0.995761   0.343253
  0.747514   0.819969   0.184076
  0.223417   0.173500   0.489327
  0.492688   0.329561   0.348153
  0.275077   0.499209   0.846050
  0.991424   0.330872   0.322137
  0.027875   0.339995   0.673552
  0.985492   0.673310   0.322182
  0.226602   0.827978   0.482354
  0.500019   0.346435   0.996101
  0.253495   0.169570   0.164438
  0.970910   0.998454   0.022086
  0.768481   0.164984   0.505852
  0.249334   0.164519   0.843340
  0.764795   0.167716   0.820566
  0.258384   0.503406   0.172272
  0.536210   0.989624   0.005453
  0.731773   0.186663   0.178611
  0.735742   0.495123   0.822107
  0.476908   0.668427   0.654338
  0.477143   0.329223   0.655078
  0.762509   0.838580   0.813425
  0.995244   0.348959   0.000396
  0.980370   0.658684   0.001616
  0.252231   0.826536   0.165000
  0.467571  -0.001928   0.654434
  0.768877   0.832380   0.504613
  0.228999   0.497290   0.477394
  0.032928   0.658837   0.676241
  0.762955   0.499594   0.493161
  0.254459   0.835855   0.854404
