generated by pypospack                  
   4.98831000000000     
     1.3807724365330658    0.0011077936698525   -0.0005509433617916
     0.0017111143365221    2.0562875870810133    0.0020067845726718
    -0.0007647388539140    0.0019380501644142    2.0481951497239113
   Hf   Nb   Zr   Ta
     9     8     8    11
Direct
  0.2526468463960029  0.1644399020895852  0.8260939564497656
  0.2465762186844944  0.4993547345047691  0.1658049877715280
  0.0144426636462787  0.6795584435921772  0.3448436321585882
  0.5059637478852884  0.0031792494376751  0.0114272941107911
  0.7473198135255781  0.1677993200208295  0.5051565496332918
  0.5120892229391214  0.3266634164019550 -0.0029669224549173
  0.7443039833046928  0.4881437182579391  0.4982123356650908
  0.4895733683771111  0.6850680836112981  0.3412424984695492
  0.4898983180901249  0.6618314490859071  0.6655629086471073
  0.0039199864759111  0.0010727965349159  0.6668991049738054
  0.2590042278350886  0.4870957563940177  0.4945820502980684
  0.0031793514291859  0.6647124732031039  0.9893300954438841
  0.7504178387925082  0.1810565736170326  0.1949214090206914
  0.4982076980249378  0.9993487077376426  0.6680159313512598
  0.7440188907687391  0.1669067526655794  0.8123695299816158
  0.7636578775970230  0.8099123808449984  0.1565375785871164
  0.2530627240510351  0.1654272304667377  0.5066228167562906
  0.9873056251203789  0.0054589924933141  0.0089936166035211
  0.0035882432633943  0.9964609963440629  0.3288693374371755
  0.9825004340742841  0.3238490101380059  0.9995310296901316
  0.0139818172814486  0.6641041453813272  0.6583994070204799
  0.4971728028051677  0.9963190734387259  0.3257130347418824
  0.7519978031079299  0.5051159633098670  0.1745414494356405
  0.4976788818020002  0.6624689477176913  0.9844584144449904
  0.7566770603208242  0.8347251278649567  0.8250577833856229
  0.2468275296096102  0.1825136850164490  0.1756513278451875
  0.0180237173287289  0.3267236806465862  0.3396999951784975
  0.0083841377598078  0.3384022405306101  0.6659142235983794
  0.2345192749472791  0.4850484970194072  0.8336003285111347
  0.2545138480248530  0.8560036365228880  0.5183196740035538
  0.4808671178351131  0.3240135260977867  0.3355536601147558
  0.7658753924812610  0.4935053116639292  0.8162154500743691
  0.7485693141075437  0.8499258934808007  0.5164110940245434
  0.2445020906797507  0.8451154451217640  0.8344820397703577
  0.2370534214769907  0.8166001139485711  0.1422674847087304
  0.4916687101505385  0.3420807247970852  0.6716618925475203
 
  0.00000000E+00  0.00000000E+00  0.00000000E+00
  0.00000000E+00  0.00000000E+00  0.00000000E+00
  0.00000000E+00  0.00000000E+00  0.00000000E+00
  0.00000000E+00  0.00000000E+00  0.00000000E+00
  0.00000000E+00  0.00000000E+00  0.00000000E+00
  0.00000000E+00  0.00000000E+00  0.00000000E+00
  0.00000000E+00  0.00000000E+00  0.00000000E+00
  0.00000000E+00  0.00000000E+00  0.00000000E+00
  0.00000000E+00  0.00000000E+00  0.00000000E+00
  0.00000000E+00  0.00000000E+00  0.00000000E+00
  0.00000000E+00  0.00000000E+00  0.00000000E+00
  0.00000000E+00  0.00000000E+00  0.00000000E+00
  0.00000000E+00  0.00000000E+00  0.00000000E+00
  0.00000000E+00  0.00000000E+00  0.00000000E+00
  0.00000000E+00  0.00000000E+00  0.00000000E+00
  0.00000000E+00  0.00000000E+00  0.00000000E+00
  0.00000000E+00  0.00000000E+00  0.00000000E+00
  0.00000000E+00  0.00000000E+00  0.00000000E+00
  0.00000000E+00  0.00000000E+00  0.00000000E+00
  0.00000000E+00  0.00000000E+00  0.00000000E+00
  0.00000000E+00  0.00000000E+00  0.00000000E+00
  0.00000000E+00  0.00000000E+00  0.00000000E+00
  0.00000000E+00  0.00000000E+00  0.00000000E+00
  0.00000000E+00  0.00000000E+00  0.00000000E+00
  0.00000000E+00  0.00000000E+00  0.00000000E+00
  0.00000000E+00  0.00000000E+00  0.00000000E+00
  0.00000000E+00  0.00000000E+00  0.00000000E+00
  0.00000000E+00  0.00000000E+00  0.00000000E+00
  0.00000000E+00  0.00000000E+00  0.00000000E+00
  0.00000000E+00  0.00000000E+00  0.00000000E+00
  0.00000000E+00  0.00000000E+00  0.00000000E+00
  0.00000000E+00  0.00000000E+00  0.00000000E+00
  0.00000000E+00  0.00000000E+00  0.00000000E+00
  0.00000000E+00  0.00000000E+00  0.00000000E+00
  0.00000000E+00  0.00000000E+00  0.00000000E+00
  0.00000000E+00  0.00000000E+00  0.00000000E+00
