generated by pypospack                  
   4.98831000000000     
     1.4131477930261680    0.0002254915250736   -0.0089747500773125
     0.0003553050016841    2.0595905111169723   -0.0007890316613430
    -0.0133638220786745   -0.0007940976194992    2.0698700519104318
   Zr   Nb   Ta   Hf
    13     4    10     9
Direct
  0.0012803343455382  0.3501270971900574  0.3162047567236872
  0.4935291989999853  0.6695709668311302  0.3254655491803274
 -0.0070775680868142  0.9982650240161288  0.9948602712538376
  0.2279518283862203  0.1668182076382451  0.5016905556567987
  0.2758213338570902  0.1715955157782567  0.8281480864478629
  0.0001122921804961  0.6676676989260494  0.0016049921924632
  0.5090730315155454  0.3361983862715625  0.3414244710168208
  0.7883081069600057  0.5188243824680203  0.5047270539952705
  0.5082517130602624  0.6680376787197122  0.6726134463992731
  0.7701262789823765  0.8284167534879531  0.5036043137440717
  0.2555924437282613  0.4945505339357877  0.8347794003368288
  0.2504336895185056  0.1613577347112184  0.1677800893793782
  0.2365597575287796  0.8321749019598156  0.5083016649253042
  0.9955376976253593  0.6748123198858643  0.6949483537313140
  0.2507593808708767  0.8321135517642597  0.8208682310992734
  0.5128101354201761  0.3432341858193661 -0.0014895533747907
  0.7394723872660482  0.5060163199061363  0.8423098757887741
  0.7424987800750910  0.8304173313893637  0.8300919987323061
  0.7565086643471892  0.8376014197457964  0.1697682037110637
  0.9917070384929761  0.9889740303550372  0.3260984242393026
  0.2850124326982125  0.4952837832085883  0.1430630702477044
  0.2405956583092914  0.8488577066063503  0.1747430474604283
  0.5144602983762694  0.9969433598998714  0.6682099042517347
  0.7223951534404620  0.5026172712442123  0.1521934438177286
  0.7783037662133470  0.1548810783536209  0.4862907613504348
  0.5046512470275218  0.6739455425559443  0.9977678074899835
  0.7094588570886901  0.1620281682513147  0.8468104423828376
  0.9650394840829949  0.3196635122902022  0.6823072367077028
  0.7433654057685198  0.1610582834528799  0.1669996270016820
  0.9773159165465272  0.0078956120962876  0.6836151266888386
  0.2285070139645288  0.5019080886169754  0.5158264328483448
  0.0168639686607029  0.6621070360457751  0.3063816127881158
  0.4940934675293791  0.9753899342685767 -0.0018771269622477
  0.5081176320163583  0.9951338277192611  0.3421443804416658
  0.5307426459245916  0.3300053957314316  0.6529371871974116
  0.9818205272786319  0.3355123588589357 -0.0012001388915368
 
  0.00000000E+00  0.00000000E+00  0.00000000E+00
  0.00000000E+00  0.00000000E+00  0.00000000E+00
  0.00000000E+00  0.00000000E+00  0.00000000E+00
  0.00000000E+00  0.00000000E+00  0.00000000E+00
  0.00000000E+00  0.00000000E+00  0.00000000E+00
  0.00000000E+00  0.00000000E+00  0.00000000E+00
  0.00000000E+00  0.00000000E+00  0.00000000E+00
  0.00000000E+00  0.00000000E+00  0.00000000E+00
  0.00000000E+00  0.00000000E+00  0.00000000E+00
  0.00000000E+00  0.00000000E+00  0.00000000E+00
  0.00000000E+00  0.00000000E+00  0.00000000E+00
  0.00000000E+00  0.00000000E+00  0.00000000E+00
  0.00000000E+00  0.00000000E+00  0.00000000E+00
  0.00000000E+00  0.00000000E+00  0.00000000E+00
  0.00000000E+00  0.00000000E+00  0.00000000E+00
  0.00000000E+00  0.00000000E+00  0.00000000E+00
  0.00000000E+00  0.00000000E+00  0.00000000E+00
  0.00000000E+00  0.00000000E+00  0.00000000E+00
  0.00000000E+00  0.00000000E+00  0.00000000E+00
  0.00000000E+00  0.00000000E+00  0.00000000E+00
  0.00000000E+00  0.00000000E+00  0.00000000E+00
  0.00000000E+00  0.00000000E+00  0.00000000E+00
  0.00000000E+00  0.00000000E+00  0.00000000E+00
  0.00000000E+00  0.00000000E+00  0.00000000E+00
  0.00000000E+00  0.00000000E+00  0.00000000E+00
  0.00000000E+00  0.00000000E+00  0.00000000E+00
  0.00000000E+00  0.00000000E+00  0.00000000E+00
  0.00000000E+00  0.00000000E+00  0.00000000E+00
  0.00000000E+00  0.00000000E+00  0.00000000E+00
  0.00000000E+00  0.00000000E+00  0.00000000E+00
  0.00000000E+00  0.00000000E+00  0.00000000E+00
  0.00000000E+00  0.00000000E+00  0.00000000E+00
  0.00000000E+00  0.00000000E+00  0.00000000E+00
  0.00000000E+00  0.00000000E+00  0.00000000E+00
  0.00000000E+00  0.00000000E+00  0.00000000E+00
  0.00000000E+00  0.00000000E+00  0.00000000E+00
