generated by pypospack                  
   4.98831000000000     
     1.3895044616896368    0.0017468688855373    0.0020541698779421
     0.0026048644871077    2.0547238105623067    0.0001618465430983
     0.0031235238801703    0.0000987274715289    2.0450311054154353
   Hf   Zr   Nb   Ta
    12     6     9     9
Direct
  0.7220732414626593  0.8411727856444439  0.5109862308798983
  0.0068736872706392  0.0028028245456452  0.6740099340045178
  0.7514632218931875  0.4877618194293022  0.8291450069252995
  0.2386446921608840  0.5028802789115256  0.1528958166449607
  0.0202310998682193  0.6819540880667627  0.3457937136790610
  0.5083186173116335  0.0028757840764411  0.0031634644883676
  0.7476006759558217  0.1709726923682317  0.5018997230762006
  0.7712094534116661  0.4872882968968056  0.5022425236275764
  0.4840334689637206  0.6673924097550650  0.3356700295299171
  0.4802828482865415  0.6567987247563736  0.6678302515150460
  0.4798159852008236  0.3397701019138136  0.3367810191804889
  0.0106831507449149  0.9982952889115206  0.3301172963209124
  0.9922179888727191  0.0029580449504219  0.0000963802792281
  0.9987930404115023  0.3125140537259132  0.9979347445324782
  0.0140645694566962  0.6726415404205350  0.6649639845627275
  0.4994608975153302  0.0013450367173290  0.3145140588135082
  0.7561009076252220  0.5000934763226554  0.1667736215917665
  0.5040313177323839  0.6742042982910953  0.9907043180313613
  0.7507307297379648  0.8310306634759745  0.8265368137593957
  0.2515535011814956  0.1748163775500190  0.1690064086286707
  0.2185498331697593  0.4855419543636929  0.5028841226154969
  0.9977847266113588  0.6751038628710929  0.9895217265790065
  0.7525282880501384  0.1810810761894849  0.1829609152381992
  0.4937467245518199  0.0071420943941560  0.6816361921716823
  0.7346779739333591  0.1802236489162033  0.8191854092823710
  0.7710234199104262  0.8164250780335857  0.1615246955357011
  0.2650250728705897  0.1698107589172683  0.8266447917852536
  0.2548814836102873  0.1631236284865457  0.5060205141938952
  0.0197383561631334  0.3204064753853469  0.3329628927026028
  0.0164751938782237  0.3229821398681705  0.6723832407077358
  0.2440413322015986  0.4909530654706913  0.8429773148885271
  0.2822404406637987  0.8563843535858741  0.5098742438591676
  0.2516837035912841  0.8383998887164801  0.8407341535760482
  0.2348392832731600  0.8220922113216294  0.1465068831310399
  0.4799150608690227  0.3392845692445296  0.6644824841217923
  0.4946520115880151  0.3214876075053889  0.9986300795401039
 
  0.00000000E+00  0.00000000E+00  0.00000000E+00
  0.00000000E+00  0.00000000E+00  0.00000000E+00
  0.00000000E+00  0.00000000E+00  0.00000000E+00
  0.00000000E+00  0.00000000E+00  0.00000000E+00
  0.00000000E+00  0.00000000E+00  0.00000000E+00
  0.00000000E+00  0.00000000E+00  0.00000000E+00
  0.00000000E+00  0.00000000E+00  0.00000000E+00
  0.00000000E+00  0.00000000E+00  0.00000000E+00
  0.00000000E+00  0.00000000E+00  0.00000000E+00
  0.00000000E+00  0.00000000E+00  0.00000000E+00
  0.00000000E+00  0.00000000E+00  0.00000000E+00
  0.00000000E+00  0.00000000E+00  0.00000000E+00
  0.00000000E+00  0.00000000E+00  0.00000000E+00
  0.00000000E+00  0.00000000E+00  0.00000000E+00
  0.00000000E+00  0.00000000E+00  0.00000000E+00
  0.00000000E+00  0.00000000E+00  0.00000000E+00
  0.00000000E+00  0.00000000E+00  0.00000000E+00
  0.00000000E+00  0.00000000E+00  0.00000000E+00
  0.00000000E+00  0.00000000E+00  0.00000000E+00
  0.00000000E+00  0.00000000E+00  0.00000000E+00
  0.00000000E+00  0.00000000E+00  0.00000000E+00
  0.00000000E+00  0.00000000E+00  0.00000000E+00
  0.00000000E+00  0.00000000E+00  0.00000000E+00
  0.00000000E+00  0.00000000E+00  0.00000000E+00
  0.00000000E+00  0.00000000E+00  0.00000000E+00
  0.00000000E+00  0.00000000E+00  0.00000000E+00
  0.00000000E+00  0.00000000E+00  0.00000000E+00
  0.00000000E+00  0.00000000E+00  0.00000000E+00
  0.00000000E+00  0.00000000E+00  0.00000000E+00
  0.00000000E+00  0.00000000E+00  0.00000000E+00
  0.00000000E+00  0.00000000E+00  0.00000000E+00
  0.00000000E+00  0.00000000E+00  0.00000000E+00
  0.00000000E+00  0.00000000E+00  0.00000000E+00
  0.00000000E+00  0.00000000E+00  0.00000000E+00
  0.00000000E+00  0.00000000E+00  0.00000000E+00
  0.00000000E+00  0.00000000E+00  0.00000000E+00
