generated by pypospack
   4.98831
  1.389175   0.001341   0.001747
  0.002001   2.056061   0.001179
  0.002668   0.001111   2.045969
 Hf Zr Nb Ta
 12 6 9 9
Direct
  0.722043   0.841474   0.512451
  0.007845   0.003258   0.674978
  0.751521   0.487681   0.829113
  0.240457   0.502989   0.152245
  0.019183   0.679346   0.344990
  0.508232   0.002654   0.003520
  0.747194   0.171624   0.502571
  0.770182   0.486937   0.502903
  0.484566   0.668716   0.335423
  0.480016   0.656871   0.667907
  0.479677   0.339125   0.336386
  0.008777   0.998400   0.330128
  0.992285   0.002767   0.998882
 -0.001112   0.312545   0.998154
  0.014222   0.672615   0.664299
  0.499796   0.001839   0.315154
  0.755184   0.500062   0.166236
  0.504262   0.674574   0.990272
  0.751140   0.831144   0.826107
  0.250232   0.174757   0.169796
  0.219526   0.485770   0.503309
 -0.001613   0.674828   0.989214
  0.753254   0.181696   0.182647
  0.492684   0.007120   0.681587
  0.734712   0.179738   0.819149
  0.770749   0.815689   0.160069
  0.265216   0.169952   0.826910
  0.255466   0.163773   0.506090
  0.019458   0.323261   0.333337
  0.016654   0.323126   0.672431
  0.244548   0.490761   0.843083
  0.281943   0.855738   0.509971
  0.251686   0.838033   0.840496
  0.235315   0.821600   0.146224
  0.479683   0.339062   0.664849
  0.495003   0.320486   0.999114
