generated by pypospack
   4.98831
  1.382337   0.000756   0.000802
  0.001202   2.038048  -0.001355
  0.001195  -0.001393   2.051283
 Ta Zr Hf Nb
 12 7 9 8
Direct
  0.764039   0.842694   0.501432
  0.239295   0.494663   0.173371
  0.997311   0.665145   0.009093
  0.224725   0.835163   0.176764
  0.757956   0.493428   0.492479
  0.774096   0.834100   0.169792
  0.016717   0.995599   0.009166
  0.768922   0.514233   0.833849
  0.994297   0.665579   0.332389
  0.259273   0.159061   0.494015
  0.253765   0.145407   0.826878
  0.498011   0.999548   0.660938
  0.752291   0.166283   0.171064
  0.238536   0.831791   0.824710
  0.753465   0.488530   0.171831
  0.500569   0.669250   0.335026
  0.020528   0.334371   0.984996
  0.494416   0.337928   0.672806
  0.498172   0.665819   0.002010
  0.489261   0.987534   0.012600
  0.741927   0.165343   0.491336
  0.764100   0.836490   0.828157
  0.481732   0.342233   0.982496
  0.253001   0.170810   0.181426
  0.007971   0.330915   0.665966
  0.234331   0.841015   0.500354
  0.753847   0.149792   0.837257
  0.510501   0.664449   0.659927
  0.239435   0.503706   0.494864
  0.504236   0.984716   0.328361
  0.996286   0.993475   0.330788
  0.007848   0.018484   0.661034
  0.986035   0.657452   0.657360
  0.015236   0.342716   0.348007
  0.483203   0.346418   0.348045
  0.224659   0.525863   0.829408
