generated by pypospack
   4.98831
  1.406103  -0.001224   0.002246
 -0.001866   2.080970   0.002946
  0.003304   0.002923   2.039787
 Ta Hf Zr Nb
 5 9 13 9
Direct
  0.731658   0.502041   0.175841
  0.505805   0.667052   0.001982
 -0.004091   0.996430   0.327785
  0.042410   0.993946   0.660587
  0.508302   0.674348   0.336115
  0.986759   0.346298   0.005882
  0.998944   0.661165  -0.001316
  0.251465   0.826353   0.169006
  0.468766   0.997962   0.659463
  0.768799   0.832857   0.505168
  0.227382   0.499465   0.479448
  0.038961   0.667209   0.680310
  0.764234   0.501658   0.494019
  0.260028   0.834943   0.850607
  0.254657   0.168851   0.166829
  0.979811   0.994167   0.016044
  0.770457   0.164795   0.505275
  0.253191   0.170262   0.845661
  0.766161   0.166380   0.821187
  0.259376   0.502788   0.173697
  0.522947   0.983392   0.998293
  0.728201   0.179898   0.176746
  0.488810   0.996918   0.347249
  0.744773   0.499290   0.820983
  0.475338   0.669377   0.662005
  0.479123   0.330846   0.652591
  0.758149   0.834810   0.814302
  0.742519   0.819916   0.179187
  0.220895   0.171824   0.490914
  0.494153   0.330939   0.348409
  0.272113   0.493314   0.845775
  0.989176   0.332535   0.317759
  0.031616   0.336515   0.672076
  0.979248   0.672299   0.318651
  0.225883   0.828876   0.483697
  0.513990   0.350283   0.997770
