generated by pypospack
   4.98831
  1.365860  -0.000195  -0.002169
 -0.000064   2.031996   0.000107
 -0.003212   0.000033   2.042354
 Hf Ta Zr Nb
 6 12 8 10
Direct
  0.248782   0.835826   0.167183
  0.007278   0.329181   0.667112
  0.717508   0.160783   0.823349
  0.494737   0.669522   0.658608
  0.008649   0.011559   0.655855
  0.765012   0.828763   0.835125
  0.522865   0.996862   0.011084
  0.261271   0.843034   0.486799
  0.742504   0.841237   0.494928
  0.246875   0.499069   0.177480
  0.743563   0.489973   0.502632
  0.977741   0.011924   0.007591
  0.760090   0.509635   0.819613
  0.262930   0.167147   0.491502
  0.277281   0.153851   0.831965
  0.493586   0.991863   0.652658
  0.498473   0.333339   0.340519
  0.737087   0.169851   0.498232
  0.755136   0.837686   0.167185
  0.492816   0.341746   0.998405
  0.000951   0.669391   0.345315
  0.239072   0.839120   0.841581
  0.756518   0.496283   0.178891
  0.003705   0.330482   0.989917
  0.498635   0.658126  -0.001667
  0.248595   0.164908   0.173164
  0.003843   0.655217   0.002330
  0.501564   0.665986   0.342412
  0.253459   0.493699   0.498214
  0.510695   0.000957   0.333091
  0.992063   0.998583   0.336944
  0.002790   0.659323   0.657055
  0.002124   0.332238   0.346972
  0.234977   0.510440   0.828156
  0.487337   0.340267   0.662810
  0.749487   0.162141   0.176991
