generated by pypospack                  
   4.98831000000000     
     1.3997485350577785    0.0010771087018345   -0.0077584698885065
     0.0016306802439859    2.0587237275490522    0.0034395728613583
    -0.0114756565048509    0.0034512035671339    2.0631774642075524
   Ta   Nb   Hf   Zr
    11     5     9    11
Direct
  0.7302261581127177  0.8349226295501714  0.8357117219470461
  0.7351414450721081  0.8394083104923886  0.1583039366713042
  0.9927523900278009  0.9786293400549168  0.3174435394413706
  0.2784663838831349  0.4933005547785061  0.1453307578866163
  0.2650998520839988  0.8444778008472790  0.1590610995273308
  0.5146792289349782  0.9990533153712280  0.6628509828120829
  0.7242703223222744  0.4980687602360054  0.1521109072184554
  0.7850849711082166  0.1516895556595877  0.4846330395707486
  0.5017469981338804  0.6693649938388070  0.9995159909596832
  0.7122682449274134  0.1585486145384542  0.8464497472909465
  0.5069807704601622  0.6733075334358352  0.6867521096942980
  0.9940619419417555  0.6778183007224416  0.6995491285466411
  0.2653659743909724  0.8350463626136220  0.8347637848096960
  0.5101417883045218  0.3421339829329972  0.9973181290220551
  0.7347136732863314  0.5078198669734658  0.8350092264842875
  0.4974281952365753  0.9894296884838556 -0.0003465152829168
  0.9951046722864099  0.9979682186587676  0.9957603035101217
  0.9701435471366915  0.3204854516404212  0.6764152247680597
  0.7460276452559534  0.1617792249178855  0.1642364601181124
  0.9843821261072936  0.0031530985256384  0.6864704098144204
  0.2376090725331920  0.5133108237775855  0.5188094398432943
  0.0107018261292155  0.6694506874822400  0.3085840137538872
  0.5100158350681868  0.9956702060315152  0.3426823899054439
  0.5272525049342494  0.3260528825570825  0.6516923161246443
  0.9813048062144193  0.3343755315717188  0.9943376620167158
  0.0019038771836235  0.3537718539888107  0.3210222443333774
  0.4932728285813890  0.6654622951573008  0.3229619566935432
  0.2253433476082868  0.1599567872607893  0.4977613155107008
  0.2760378493588005  0.1682312176497937  0.8306114298442299
  0.9974784278052314  0.6689084286109193  0.0034217746026650
  0.5086862235335339  0.3359718275725026  0.3397119462827780
  0.7743068251755016  0.5229022134980076  0.5111814171016217
  0.7619944692688224  0.8238446774220722  0.5094473801465585
  0.2542555520400084  0.4976705537327273  0.8314184722294423
  0.2497020068018210  0.1630941858056291  0.1667210230293457
  0.2460422187505082  0.8249262236090298  0.5123042337714186
 
  0.00000000E+00  0.00000000E+00  0.00000000E+00
  0.00000000E+00  0.00000000E+00  0.00000000E+00
  0.00000000E+00  0.00000000E+00  0.00000000E+00
  0.00000000E+00  0.00000000E+00  0.00000000E+00
  0.00000000E+00  0.00000000E+00  0.00000000E+00
  0.00000000E+00  0.00000000E+00  0.00000000E+00
  0.00000000E+00  0.00000000E+00  0.00000000E+00
  0.00000000E+00  0.00000000E+00  0.00000000E+00
  0.00000000E+00  0.00000000E+00  0.00000000E+00
  0.00000000E+00  0.00000000E+00  0.00000000E+00
  0.00000000E+00  0.00000000E+00  0.00000000E+00
  0.00000000E+00  0.00000000E+00  0.00000000E+00
  0.00000000E+00  0.00000000E+00  0.00000000E+00
  0.00000000E+00  0.00000000E+00  0.00000000E+00
  0.00000000E+00  0.00000000E+00  0.00000000E+00
  0.00000000E+00  0.00000000E+00  0.00000000E+00
  0.00000000E+00  0.00000000E+00  0.00000000E+00
  0.00000000E+00  0.00000000E+00  0.00000000E+00
  0.00000000E+00  0.00000000E+00  0.00000000E+00
  0.00000000E+00  0.00000000E+00  0.00000000E+00
  0.00000000E+00  0.00000000E+00  0.00000000E+00
  0.00000000E+00  0.00000000E+00  0.00000000E+00
  0.00000000E+00  0.00000000E+00  0.00000000E+00
  0.00000000E+00  0.00000000E+00  0.00000000E+00
  0.00000000E+00  0.00000000E+00  0.00000000E+00
  0.00000000E+00  0.00000000E+00  0.00000000E+00
  0.00000000E+00  0.00000000E+00  0.00000000E+00
  0.00000000E+00  0.00000000E+00  0.00000000E+00
  0.00000000E+00  0.00000000E+00  0.00000000E+00
  0.00000000E+00  0.00000000E+00  0.00000000E+00
  0.00000000E+00  0.00000000E+00  0.00000000E+00
  0.00000000E+00  0.00000000E+00  0.00000000E+00
  0.00000000E+00  0.00000000E+00  0.00000000E+00
  0.00000000E+00  0.00000000E+00  0.00000000E+00
  0.00000000E+00  0.00000000E+00  0.00000000E+00
  0.00000000E+00  0.00000000E+00  0.00000000E+00
