generated by pypospack                  
   4.98831000000000     
     1.4114588363853140    0.0013719853509814   -0.0028985351385187
     0.0021389151900820    2.0504370995693599   -0.0003937096651308
    -0.0043342631127829   -0.0004215766934590    2.0804459109598654
   Nb   Hf   Ta   Zr
     6    10     8    12
Direct
  0.7449180669417410  0.1650698123459026  0.1647078717086103
  0.7217612623953159  0.1608382883236201  0.8411249345138780
  0.2663466241332217  0.8297000642380951  0.8342149591189127
  0.5401586054871689  0.3262855011702487  0.9936056577193645
  0.7394352341784287  0.5117562682666450  0.8332715702234555
  0.5032039154030127  0.9949548481523833  0.0072338382206433
  0.7277247531123849  0.5082416263137794  0.1603688038364975
  0.2765630699629808  0.1710504259725000  0.8445019125457465
  0.9913328664059351  0.9990960703036722  0.9989906701662907
  0.9936061650032808 -0.0014179619730415  0.6931440914410101
  0.0168048525927881  0.6692763052845722  0.3165323313712614
  0.5209606456345636  0.0020258374093394  0.3316794317564205
  0.5155214549675667  0.3328044191128232  0.6579660856930311
  0.9710102694443863  0.3262820511510136  0.9915420841902177
  0.7238607620654159  0.8231166214279843  0.8349438649769642
  0.5172154782993457  0.3249380748351563  0.3509351472633788
  0.7316806480275108  0.8313438192790539  0.1552298713833899
  0.9753555515940029  0.9900704763546110  0.3093754253868455
  0.2577283056367060  0.8519192988843044  0.1655568406924378
  0.7934615455369101  0.1542137177620646  0.4884486398651104
  0.4817698939093791  0.6772288280099277  0.0015096291984346
  0.4837266690063953  0.6593862507922942  0.6726614818394322
  0.2475801022669072  0.5119902389614683  0.5197807192840636
  0.0135843078728555  0.6653020262106646  0.6850574025572650
  0.9885969267420809  0.3351934032322881  0.6709172985689622
  0.5111720251506721  0.0128736672825094  0.6540347215891119
  0.2747807894546984  0.4812936010092811  0.1500315557683061
  0.9988772630933995  0.3458638478035329  0.3320258712575221
  0.4760619154282211  0.6720567012605809  0.3300979016992042
  0.2149365833660988  0.1541055932558977  0.4935527795774078
  0.0075530232525515  0.6716093734528515  0.0020051936443599
  0.7567480260693779  0.5261807141758783  0.5068747296310322
  0.7617405225679914  0.8262401877691163  0.5065445732898539
  0.2606908425009276  0.4924254860607769  0.8356617837745985
  0.2580155579917365  0.1649927378729241  0.1618578529743440
  0.2355004745040372  0.8316977782352656  0.5040104732726186
 
  0.00000000E+00  0.00000000E+00  0.00000000E+00
  0.00000000E+00  0.00000000E+00  0.00000000E+00
  0.00000000E+00  0.00000000E+00  0.00000000E+00
  0.00000000E+00  0.00000000E+00  0.00000000E+00
  0.00000000E+00  0.00000000E+00  0.00000000E+00
  0.00000000E+00  0.00000000E+00  0.00000000E+00
  0.00000000E+00  0.00000000E+00  0.00000000E+00
  0.00000000E+00  0.00000000E+00  0.00000000E+00
  0.00000000E+00  0.00000000E+00  0.00000000E+00
  0.00000000E+00  0.00000000E+00  0.00000000E+00
  0.00000000E+00  0.00000000E+00  0.00000000E+00
  0.00000000E+00  0.00000000E+00  0.00000000E+00
  0.00000000E+00  0.00000000E+00  0.00000000E+00
  0.00000000E+00  0.00000000E+00  0.00000000E+00
  0.00000000E+00  0.00000000E+00  0.00000000E+00
  0.00000000E+00  0.00000000E+00  0.00000000E+00
  0.00000000E+00  0.00000000E+00  0.00000000E+00
  0.00000000E+00  0.00000000E+00  0.00000000E+00
  0.00000000E+00  0.00000000E+00  0.00000000E+00
  0.00000000E+00  0.00000000E+00  0.00000000E+00
  0.00000000E+00  0.00000000E+00  0.00000000E+00
  0.00000000E+00  0.00000000E+00  0.00000000E+00
  0.00000000E+00  0.00000000E+00  0.00000000E+00
  0.00000000E+00  0.00000000E+00  0.00000000E+00
  0.00000000E+00  0.00000000E+00  0.00000000E+00
  0.00000000E+00  0.00000000E+00  0.00000000E+00
  0.00000000E+00  0.00000000E+00  0.00000000E+00
  0.00000000E+00  0.00000000E+00  0.00000000E+00
  0.00000000E+00  0.00000000E+00  0.00000000E+00
  0.00000000E+00  0.00000000E+00  0.00000000E+00
  0.00000000E+00  0.00000000E+00  0.00000000E+00
  0.00000000E+00  0.00000000E+00  0.00000000E+00
  0.00000000E+00  0.00000000E+00  0.00000000E+00
  0.00000000E+00  0.00000000E+00  0.00000000E+00
  0.00000000E+00  0.00000000E+00  0.00000000E+00
  0.00000000E+00  0.00000000E+00  0.00000000E+00
