generated by pypospack
   4.98831
  1.383792  -0.000116   0.008139
 -0.000125   2.057597  -0.002895
  0.011828  -0.003100   2.040463
 Ta Hf Nb Zr
 6 10 12 8
Direct
  0.731242   0.494229   0.179130
  0.033195  -0.002389   0.672934
  0.505398   0.665039   0.342588
  0.768571   0.504053   0.492374
  0.990793   0.664144   0.324024
  0.480936   0.013754   0.000572
  0.263323   0.502908   0.170772
  0.493971   0.665772   0.643751
  0.261222   0.510127   0.844541
  0.229195   0.167622   0.485470
  0.010752   0.333647   0.005783
  0.972803   0.661934   0.021282
  0.264707   0.827023   0.165642
  0.473782   0.000411   0.659499
  0.768762   0.837622   0.497974
  0.263160   0.821803   0.845021
  0.256922   0.167002   0.176235
  0.013367   0.672840   0.658031
  0.531868   0.661813   0.014211
 -0.000570   0.991258   0.318661
  0.495919   0.991351   0.337573
  0.734401   0.835926   0.180613
  0.497915   0.343075   0.334473
 -0.005300   0.343108   0.313178
  0.015519   0.328100   0.683051
  0.234624   0.834319   0.486799
  0.483022   0.325542   0.006249
  0.250531   0.169749   0.833997
  0.009558   0.005149   0.004621
  0.766184   0.166180   0.496841
  0.748568   0.165271   0.830612
  0.733374   0.168287   0.172509
  0.492015   0.333417   0.657208
  0.752875   0.837096   0.825840
  0.224942   0.493586   0.491912
  0.752445   0.499238   0.826024
