generated by pypospack                  
   4.98831000000000     
     1.3803975393549537   -0.0031536473051380   -0.0012642208110803
    -0.0045447265223724    2.0301835422505787   -0.0021054949069423
    -0.0018590342097414   -0.0021621724946876    2.0508753921047651
   Hf   Zr   Nb   Ta
     8     7     8    13
Direct
  0.2270243213422528  0.8306790547367510  0.1679405393313745
  0.4808950940000576  0.3432398815196429  0.6688139270930136
  0.5240073212852951  0.9901110316499789 -0.0009261997620223
  0.7443936012090141  0.1662115265276704  0.4993247987473040
  0.0222196689896367  0.3349659300616349  0.6664693146320601
  0.7525456645179598  0.1675022513134532  0.8242368086854308
  0.5071413081537266  0.6702980520995455  0.6604379158235100
  0.4745413683008451  0.3413057151153474  0.9838332469289446
  0.7510638257085688  0.1683442798194012  0.1771798377675283
  0.2394468756049147  0.8338718609943462  0.8312111583728085
  0.7558352527224238  0.4862744865013430  0.1744641663057019
  0.5028662775341692  0.6666775063341903  0.3374639817931979
  0.0246475118367937  0.3341813942839277  0.9885089411105817
  0.5090162636977795  0.6634624116626944 -0.0008085260685276
  0.2546188204061498  0.1653962535328273  0.1765625862905924
  0.7615638256285129  0.8320472290053094  0.8253605153831503
  0.2374510107710893  0.5056879426813023  0.4935910419411057
  0.5029147945225668  0.9890312613344558  0.3391885019318472
  0.0023497515451063  0.9957668860727525  0.3386895516529972
  0.0051688383857125  0.0026753184807944  0.6618499259033448
  0.9902663372593484  0.6650493358406496  0.6611021837140266
  0.0195953756979604  0.3410443588039188  0.3473624099217585
  0.2256401416024879  0.5293765364797506  0.8323177132163775
  0.2394727915655752  0.8435426124114961  0.4986618341106901
  0.7652495422859590  0.8442998396337886  0.5002300030250976
  0.2356711018530956  0.5024419706994180  0.1753486893052524
  0.9814423477485125  0.6631577977528479 -0.0002485773176377
  0.7605403485147940  0.4933626637490456  0.4959692255705974
  0.7768605894858930  0.8343599986991246  0.1734309650814934
  0.9787551298346817  0.9962045085998917 -0.0007794363220871
  0.7611136664315303  0.4990606675746876  0.8272046636457525
 -0.0046224242999824  0.6659328940008248  0.3396870827289020
  0.2610772427157323  0.1573933499020649  0.4958564554697425
  0.2466258503238468  0.1409018539648978  0.8275931536475677
  0.5000888597885883  0.9899996082062117  0.6622801468485854
  0.4825107030293964  0.3461537299540106  0.3505914534899450
 
  0.00000000E+00  0.00000000E+00  0.00000000E+00
  0.00000000E+00  0.00000000E+00  0.00000000E+00
  0.00000000E+00  0.00000000E+00  0.00000000E+00
  0.00000000E+00  0.00000000E+00  0.00000000E+00
  0.00000000E+00  0.00000000E+00  0.00000000E+00
  0.00000000E+00  0.00000000E+00  0.00000000E+00
  0.00000000E+00  0.00000000E+00  0.00000000E+00
  0.00000000E+00  0.00000000E+00  0.00000000E+00
  0.00000000E+00  0.00000000E+00  0.00000000E+00
  0.00000000E+00  0.00000000E+00  0.00000000E+00
  0.00000000E+00  0.00000000E+00  0.00000000E+00
  0.00000000E+00  0.00000000E+00  0.00000000E+00
  0.00000000E+00  0.00000000E+00  0.00000000E+00
  0.00000000E+00  0.00000000E+00  0.00000000E+00
  0.00000000E+00  0.00000000E+00  0.00000000E+00
  0.00000000E+00  0.00000000E+00  0.00000000E+00
  0.00000000E+00  0.00000000E+00  0.00000000E+00
  0.00000000E+00  0.00000000E+00  0.00000000E+00
  0.00000000E+00  0.00000000E+00  0.00000000E+00
  0.00000000E+00  0.00000000E+00  0.00000000E+00
  0.00000000E+00  0.00000000E+00  0.00000000E+00
  0.00000000E+00  0.00000000E+00  0.00000000E+00
  0.00000000E+00  0.00000000E+00  0.00000000E+00
  0.00000000E+00  0.00000000E+00  0.00000000E+00
  0.00000000E+00  0.00000000E+00  0.00000000E+00
  0.00000000E+00  0.00000000E+00  0.00000000E+00
  0.00000000E+00  0.00000000E+00  0.00000000E+00
  0.00000000E+00  0.00000000E+00  0.00000000E+00
  0.00000000E+00  0.00000000E+00  0.00000000E+00
  0.00000000E+00  0.00000000E+00  0.00000000E+00
  0.00000000E+00  0.00000000E+00  0.00000000E+00
  0.00000000E+00  0.00000000E+00  0.00000000E+00
  0.00000000E+00  0.00000000E+00  0.00000000E+00
  0.00000000E+00  0.00000000E+00  0.00000000E+00
  0.00000000E+00  0.00000000E+00  0.00000000E+00
  0.00000000E+00  0.00000000E+00  0.00000000E+00
