generated by pypospack
   4.98831
  1.372392   0.000143  -0.000399
  0.000318   2.034167  -0.000285
 -0.000568  -0.000329   2.046617
 Hf Zr Nb Ta
 8 7 8 13
Direct
  0.227393   0.834427   0.172131
  0.492508   0.340333   0.670842
  0.503301   0.989421   0.003416
  0.743645   0.164745   0.494185
  0.011051   0.335310   0.666458
  0.762492   0.151937   0.829511
  0.507411   0.669255   0.660078
  0.481603   0.339826   0.980573
  0.750949   0.167218   0.173910
  0.240106   0.832603   0.827069
  0.754933   0.487110   0.173518
  0.497546   0.668039   0.336822
  0.021813   0.334997   0.985786
  0.502100   0.668428   0.002581
  0.254567   0.168611   0.178029
  0.758009   0.834137   0.827341
  0.238568   0.504754   0.496119
  0.498067   0.987262   0.333543
  0.003427   0.992448   0.333139
  0.003685   0.000155   0.659069
  0.990684   0.664829   0.660913
  0.019211   0.342287   0.349085
  0.227414   0.525367   0.832040
  0.237152   0.841662   0.500450
  0.762942   0.842908   0.498047
  0.240780   0.497937   0.174218
  0.992149   0.669432   0.006073
  0.760283   0.495319   0.494369
  0.769934   0.836155   0.174280
  0.998131   0.990852   0.005476
  0.765218   0.512408   0.832755
  0.000462   0.668320   0.335018
  0.259916   0.158700   0.497455
  0.240635   0.143917   0.822308
  0.499399   0.991001   0.660825
  0.482515   0.347902   0.352568
