generated by pypospack
   4.98831
  1.404077  -0.001791  -0.001077
 -0.002471   2.067508   0.008164
 -0.001569   0.008137   2.070047
 Ta Zr Hf Nb
 11 8 13 4
Direct
  0.718793   0.834549   0.190587
  0.225331   0.176133   0.508743
  0.037199   0.331700   0.338479
  0.236428   0.500517   0.822509
  0.274714   0.823766   0.161405
  0.488559   0.333421   0.666603
  0.248307   0.498616   0.502009
  0.491382   0.662764   0.325829
  0.482325   0.631011   0.669040
  0.017890   0.660036   0.651562
  0.014500   0.990566   0.331219
  0.503830   0.004006  -0.002898
  0.754489   0.496116   0.496788
  0.994414   0.998169  -0.000390
  0.017552   0.326155   0.992150
  0.479214   0.008107   0.333923
  0.280216   0.823848   0.516244
  0.765516   0.179318   0.182968
  0.977121   0.688581   0.007721
  0.490428   0.327817   0.994277
  0.763786   0.491924   0.178694
  0.261714   0.818725   0.827254
  0.733700   0.826285   0.501275
  0.767411   0.496918   0.822506
  0.237129   0.511240   0.165538
  0.013338   0.683064   0.337606
  0.768375   0.177491   0.500694
  0.467317   0.328018   0.335716
  0.517714   0.665560   0.005394
  0.495633   0.027210   0.674421
  0.000559   0.003440   0.677680
  0.730315   0.813894   0.802171
  0.012236   0.333085   0.669127
  0.233747   0.164285   0.165349
  0.753476   0.188999   0.820855
  0.245345   0.174679   0.826950
