generated by pypospack
   4.98831
  1.363066  -0.003794  -0.000555
 -0.005466   2.021911  -0.000970
 -0.000780  -0.001014   2.040971
 Zr Ta Nb Hf
 5 16 9 6
Direct
  0.242701   0.838087   0.835712
  0.751687   0.492992   0.178192
  0.017138   0.331278   0.994558
  0.512064   0.660533   0.992918
  0.254611   0.160061   0.174084
  0.522195   0.997592   0.003754
  0.244960   0.838162   0.496235
  0.757952   0.838172   0.496539
  0.242530   0.508369   0.177942
  0.980360   0.668929   0.001839
  0.752929   0.498370   0.493423
  0.749785   0.836748   0.173137
  0.980220   0.998708   0.005985
  0.769259   0.497230   0.822442
  0.997158   0.668944   0.340068
  0.255901   0.157267   0.493611
  0.260798   0.141127   0.830500
  0.502102   0.986980   0.660172
  0.490214   0.335569   0.340826
  0.747204   0.161983   0.173855
  0.750672   0.167363   0.496988
  0.497606   0.665135   0.343965
  0.758502   0.839016   0.830620
  0.244713   0.507251   0.489644
  0.506202   0.997325   0.335570
  0.996650   0.995255   0.332835
  0.004809   0.001401   0.662168
  0.994621   0.666110   0.660366
  0.010972   0.338044   0.341142
  0.219998   0.526400   0.835997
  0.249624   0.829075   0.169109
  0.477489   0.344807   0.669800
  0.024228   0.334570   0.664165
  0.743572   0.163789   0.827328
  0.505014   0.670422   0.662030
  0.483560   0.336948   0.992482
