generated by pypospack                  
   4.98831000000000     
     1.3698745310563498    0.0019709701693797   -0.0000027610639979
     0.0029775394367974    2.0419222754308430   -0.0050684506691970
     0.0000224341211093   -0.0050106052223681    2.0475213249620259
   Hf   Nb   Ta   Zr
     9    10    11     6
Direct
  0.4802127975720852  0.3401313272971440  0.0027602964439084
  0.2415951651279231  0.1661837071933984  0.1783055093291381
  0.0039564239872172  0.3308769443281852  0.6577530727071760
  0.2459100975255944  0.8355746767205592  0.5037942777304178
  0.7535827800607462  0.1589397202384029  0.8417054231750628
  0.7599204577617144  0.5081861399502909  0.8361493558899514
  0.4966573769552662  0.6626607052797634  0.3268310295248357
  0.7710934079542894  0.4914059588174650  0.1664100229360989
  0.7520349038644027  0.8316544847565872  0.5033031356967057
  0.5064455699557123  0.0025773959821823  0.3301286704745618
  0.9889434650106274  0.0048885053906810  0.3329137465158136
  0.2513361293986559  0.1628680353335797  0.4886850474542367
  0.9984631085764993  0.0137103091974060  0.6572079001161930
  0.0014874276196223  0.6655176460777403  0.3320023301102241
  0.0074982234384061  0.6596932464086596  0.6658536661002353
  0.7460226298299887  0.1623626123535306  0.4898156766954121
  0.5006530666638759  0.0073492131913083  0.6538775356586797
  0.4904242656340786  0.6581783221956753  0.6629371026455377
  0.9944213468856551  0.3322375497883120  0.3469974298108430
  0.2287383649667837  0.4955640244148358  0.1805730973036063
  0.2430253795198566  0.5073963170839955  0.4957274242212220
  0.2438826928011288  0.5222156879284835  0.8223397570368807
  0.0148810702086005  0.6776313807057017  0.0047998065375288
  0.2288911398628395  0.8401959570124309  0.1812147675338252
  0.5013588851921926  0.3375839641709759  0.3390768235862356
  0.7539128303243807  0.5069550956374120  0.4958678240818372
  0.7689728597771078  0.8350008182313301  0.1792284599851473
  0.9976688534415565  0.9823539822851696  0.0102038014411771
  0.7540315791968671  0.1688510138347412  0.1700066010443099
  0.2435155638934046  0.8317612695590664  0.8211361541238075
  0.2533521679895142  0.1404042802749739  0.8296243267067029
  0.0348312227903101  0.3367664466919959  0.9876443275694782
  0.5024299563473943  0.9858083571293033  0.0157204619036950
  0.4971486672327097  0.3346490253789811  0.6593565020142731
  0.4896205336585175  0.6695249232685643  0.0086018599669107
  0.7530795889744619  0.8323449558911519  0.8214507759283556
 
  0.00000000E+00  0.00000000E+00  0.00000000E+00
  0.00000000E+00  0.00000000E+00  0.00000000E+00
  0.00000000E+00  0.00000000E+00  0.00000000E+00
  0.00000000E+00  0.00000000E+00  0.00000000E+00
  0.00000000E+00  0.00000000E+00  0.00000000E+00
  0.00000000E+00  0.00000000E+00  0.00000000E+00
  0.00000000E+00  0.00000000E+00  0.00000000E+00
  0.00000000E+00  0.00000000E+00  0.00000000E+00
  0.00000000E+00  0.00000000E+00  0.00000000E+00
  0.00000000E+00  0.00000000E+00  0.00000000E+00
  0.00000000E+00  0.00000000E+00  0.00000000E+00
  0.00000000E+00  0.00000000E+00  0.00000000E+00
  0.00000000E+00  0.00000000E+00  0.00000000E+00
  0.00000000E+00  0.00000000E+00  0.00000000E+00
  0.00000000E+00  0.00000000E+00  0.00000000E+00
  0.00000000E+00  0.00000000E+00  0.00000000E+00
  0.00000000E+00  0.00000000E+00  0.00000000E+00
  0.00000000E+00  0.00000000E+00  0.00000000E+00
  0.00000000E+00  0.00000000E+00  0.00000000E+00
  0.00000000E+00  0.00000000E+00  0.00000000E+00
  0.00000000E+00  0.00000000E+00  0.00000000E+00
  0.00000000E+00  0.00000000E+00  0.00000000E+00
  0.00000000E+00  0.00000000E+00  0.00000000E+00
  0.00000000E+00  0.00000000E+00  0.00000000E+00
  0.00000000E+00  0.00000000E+00  0.00000000E+00
  0.00000000E+00  0.00000000E+00  0.00000000E+00
  0.00000000E+00  0.00000000E+00  0.00000000E+00
  0.00000000E+00  0.00000000E+00  0.00000000E+00
  0.00000000E+00  0.00000000E+00  0.00000000E+00
  0.00000000E+00  0.00000000E+00  0.00000000E+00
  0.00000000E+00  0.00000000E+00  0.00000000E+00
  0.00000000E+00  0.00000000E+00  0.00000000E+00
  0.00000000E+00  0.00000000E+00  0.00000000E+00
  0.00000000E+00  0.00000000E+00  0.00000000E+00
  0.00000000E+00  0.00000000E+00  0.00000000E+00
  0.00000000E+00  0.00000000E+00  0.00000000E+00
