generated by pypospack                  
   4.98831000000000     
     1.3826683569589389   -0.0014784985987575    0.0006170576493557
    -0.0020955712403194    2.0436962481433438   -0.0051867274053232
     0.0009241760319709   -0.0052388270982756    2.0619501265012188
   Ta   Nb   Zr   Hf
    11     8     8     9
Direct
  0.7659324889914607  0.8419862746449857  0.5001880819637090
  0.2386783516487396  0.4944081126534846  0.1744394027866460
  0.2245372892812549  0.5283707227013483  0.8277127245768906
  0.9992329965470133  0.6678932307129225  0.0093217486382642
  0.2256845490049516  0.8323245766870780  0.1798266936174222
  0.7592589282412650  0.4930625646239605  0.4929952514142408
  0.7735090276736480  0.8297308712635695  0.1746233647218509
  0.0023977744474635  0.9848888416300430  0.0138568972742017
  0.7704791639564444  0.5193509675303589  0.8318354765188459
  0.9972708090952829  0.6645164050831488  0.3338860865702622
  0.2553515928539755  0.1595819332525402  0.4899867904661946
  0.2386266635348968  0.5015533162893355  0.4949170910197326
  0.5021853973751855  0.9893265281568091  0.3258144780693800
  0.9973853452841612  0.9952294164151785  0.3304114555006294
 -0.0001127206220350  0.0192536848060731  0.6575807807436018
  0.9890494988451176  0.6595027660376178  0.6578096968247639
  0.5087667659381511  0.9886486899604547  0.6479159969921231
  0.0137631834999170  0.3418344233562462  0.3470858473191870
  0.4831068901104327  0.3452713896832250  0.3474251017712433
  0.7536509126485973  0.1691990561690706  0.1709370866958462
  0.2421319952330454  0.8328905950991793  0.8269070421037187
  0.7549616077176289  0.4887484093520323  0.1731734669139905
  0.4999944750168018  0.6652485279251455  0.3383589374150144
  0.2688280992088415  0.1419189837760402  0.8293192212251387
  0.0156376420640329  0.3415383238905974  0.9829578177055436
  0.4958239003680222  0.3450183602324412  0.6715789634929414
  0.4972391302343909  0.6646658328680509  0.0030998818483641
  0.4990271019147615  0.9817644909508428  0.0281120064124944
  0.7426168895353854  0.1660684938861378  0.4903678276302987
  0.7621725524881584  0.8369922336541064  0.8276447233450438
  0.4849593625759365  0.3493449047712127  0.9832928875980633
  0.2458927097503493  0.1720536156951010  0.1772625138341121
  0.0058763409819597  0.3306548086661776  0.6649107250804576
  0.2352772300474767  0.8430906946877020  0.4992829116092123
  0.7419163285053814  0.1490209826606211  0.8355067316511626
  0.5088867260019175  0.6650469702271761  0.6596482886494091
 
  0.00000000E+00  0.00000000E+00  0.00000000E+00
  0.00000000E+00  0.00000000E+00  0.00000000E+00
  0.00000000E+00  0.00000000E+00  0.00000000E+00
  0.00000000E+00  0.00000000E+00  0.00000000E+00
  0.00000000E+00  0.00000000E+00  0.00000000E+00
  0.00000000E+00  0.00000000E+00  0.00000000E+00
  0.00000000E+00  0.00000000E+00  0.00000000E+00
  0.00000000E+00  0.00000000E+00  0.00000000E+00
  0.00000000E+00  0.00000000E+00  0.00000000E+00
  0.00000000E+00  0.00000000E+00  0.00000000E+00
  0.00000000E+00  0.00000000E+00  0.00000000E+00
  0.00000000E+00  0.00000000E+00  0.00000000E+00
  0.00000000E+00  0.00000000E+00  0.00000000E+00
  0.00000000E+00  0.00000000E+00  0.00000000E+00
  0.00000000E+00  0.00000000E+00  0.00000000E+00
  0.00000000E+00  0.00000000E+00  0.00000000E+00
  0.00000000E+00  0.00000000E+00  0.00000000E+00
  0.00000000E+00  0.00000000E+00  0.00000000E+00
  0.00000000E+00  0.00000000E+00  0.00000000E+00
  0.00000000E+00  0.00000000E+00  0.00000000E+00
  0.00000000E+00  0.00000000E+00  0.00000000E+00
  0.00000000E+00  0.00000000E+00  0.00000000E+00
  0.00000000E+00  0.00000000E+00  0.00000000E+00
  0.00000000E+00  0.00000000E+00  0.00000000E+00
  0.00000000E+00  0.00000000E+00  0.00000000E+00
  0.00000000E+00  0.00000000E+00  0.00000000E+00
  0.00000000E+00  0.00000000E+00  0.00000000E+00
  0.00000000E+00  0.00000000E+00  0.00000000E+00
  0.00000000E+00  0.00000000E+00  0.00000000E+00
  0.00000000E+00  0.00000000E+00  0.00000000E+00
  0.00000000E+00  0.00000000E+00  0.00000000E+00
  0.00000000E+00  0.00000000E+00  0.00000000E+00
  0.00000000E+00  0.00000000E+00  0.00000000E+00
  0.00000000E+00  0.00000000E+00  0.00000000E+00
  0.00000000E+00  0.00000000E+00  0.00000000E+00
  0.00000000E+00  0.00000000E+00  0.00000000E+00
