generated by pypospack
   4.98831
  1.382133  -0.001630   0.001448
 -0.002322   2.043880  -0.004463
  0.002165  -0.004510   2.061262
 Ta Nb Zr Hf
 11 8 8 9
Direct
  0.765780   0.842542   0.500409
  0.238607   0.494284   0.174745
  0.225160   0.528898   0.828142
  0.999418   0.668233   0.009911
  0.226482   0.833188   0.180336
  0.758673   0.492204   0.492726
  0.772914   0.830465   0.175279
  0.000122   0.984561   0.013721
  0.770817   0.519458   0.831870
  0.995756   0.664580   0.333444
  0.254096   0.160710   0.490868
  0.238429   0.502965   0.495103
  0.501696   0.990048   0.325921
  0.997815   0.995178   0.330660
  0.002322   0.018472   0.656304
  0.989129   0.659219   0.657782
  0.507259   0.988664   0.648227
  0.014512   0.341517   0.347481
  0.481170   0.343851   0.347775
  0.753103   0.169352   0.171645
  0.242771   0.833174   0.826797
  0.755028   0.487360   0.173655
  0.501291   0.664891   0.337825
  0.266570   0.142671   0.831667
  0.014645   0.342430   0.982919
  0.495734   0.345087   0.671911
  0.497660   0.665087   0.003583
  0.501525   0.981625   0.027466
  0.743760   0.165724   0.490904
  0.762978   0.837239   0.826481
  0.485955   0.349640   0.983087
  0.245238   0.171410   0.174414
  0.005816   0.331462   0.665067
  0.235891   0.840314   0.498493
  0.742161   0.148696   0.833609
  0.509714   0.664801   0.659767
