generated by pypospack                  
   4.98831000000000     
     1.3760118430124899    0.0009240629446637   -0.0004480198858544
     0.0014241045060770    2.0645633532211090    0.0055812580310472
    -0.0006224566453727    0.0054928358727038    2.0606607246100186
   Hf   Nb   Ta   Zr
     9     9     9     9
Direct
  0.2553902300205484  0.1683388152567193  0.8218940394670478
  0.2437337668960218  0.4999256869678412  0.1660089351066967
  0.2304134662920411  0.8152900450345131  0.1436123452242035
  0.0099857420360095  0.6773906349678566  0.3537209500087511
  0.5094246246252659  0.0085906763377013  0.0104456325341400
  0.7466943972067649  0.1680222009424139  0.5061268818539819
  0.5087152032642250  0.3256295105131692  0.0020433991927529
  0.7426962782225554  0.4870662760583135  0.4991270246565412
  0.4960185965322432  0.6840997025399953  0.3439910302698112
  0.0039461822009663  0.0005881491625282  0.6692644133941014
  0.2613737522785849  0.4827725781491651  0.4963988795699673
  0.9954940915521246  0.6559265356447996  0.9790844515283421
  0.2459351717592305  0.8430979428966908  0.8339943772666416
  0.7519595019106822  0.1827973440309109  0.1937482687609539
  0.4983676495407823  0.9977220915367472  0.6693452104254666
  0.7424834188489701  0.1671389166630210  0.8132071705944001
  0.4936219949190184  0.3383623022109052  0.6690243264502679
  0.7674694166114591  0.8116658011080011  0.1545852691928900
  0.2460650095111882  0.1826760931670595  0.1806094895340445
  0.2531396416319951  0.1654525821204366  0.5058490333587438
  0.0164996594559211  0.3272466781972905  0.3407059525765375
  0.0065229968381297  0.3375310045164425  0.6657102969280235
  0.2397709090304980  0.4817853172659210  0.8305040140468986
  0.2522119913788707  0.8608975321505726  0.5148404704927695
  0.4833034852801273  0.3252949102243237  0.3326437281298719
  0.7603193824777884  0.4916361266606717  0.8168633473678506
  0.7521017639426388  0.8517080134954305  0.5189791875754950
  0.9849848908511195  0.0119026895127286  0.0062838149970071
  0.9998602465237691  0.9988734918067752  0.3301361290813487
  0.9872490103268788  0.3243157311308582  0.9989053957989655
  0.0134507885800157  0.6634402021333102  0.6602301160299551
  0.5011201170910258  0.9976533478500765  0.3264536653952267
  0.7544072125682348  0.5058712028690876  0.1745979325128296
  0.5007630746256846  0.6577388402294930  0.9813379898321362
  0.4904729286151510  0.6659610998947382  0.6623503248309325
  0.7540334065534968  0.8355899267534632  0.8273765060144153
 
  0.00000000E+00  0.00000000E+00  0.00000000E+00
  0.00000000E+00  0.00000000E+00  0.00000000E+00
  0.00000000E+00  0.00000000E+00  0.00000000E+00
  0.00000000E+00  0.00000000E+00  0.00000000E+00
  0.00000000E+00  0.00000000E+00  0.00000000E+00
  0.00000000E+00  0.00000000E+00  0.00000000E+00
  0.00000000E+00  0.00000000E+00  0.00000000E+00
  0.00000000E+00  0.00000000E+00  0.00000000E+00
  0.00000000E+00  0.00000000E+00  0.00000000E+00
  0.00000000E+00  0.00000000E+00  0.00000000E+00
  0.00000000E+00  0.00000000E+00  0.00000000E+00
  0.00000000E+00  0.00000000E+00  0.00000000E+00
  0.00000000E+00  0.00000000E+00  0.00000000E+00
  0.00000000E+00  0.00000000E+00  0.00000000E+00
  0.00000000E+00  0.00000000E+00  0.00000000E+00
  0.00000000E+00  0.00000000E+00  0.00000000E+00
  0.00000000E+00  0.00000000E+00  0.00000000E+00
  0.00000000E+00  0.00000000E+00  0.00000000E+00
  0.00000000E+00  0.00000000E+00  0.00000000E+00
  0.00000000E+00  0.00000000E+00  0.00000000E+00
  0.00000000E+00  0.00000000E+00  0.00000000E+00
  0.00000000E+00  0.00000000E+00  0.00000000E+00
  0.00000000E+00  0.00000000E+00  0.00000000E+00
  0.00000000E+00  0.00000000E+00  0.00000000E+00
  0.00000000E+00  0.00000000E+00  0.00000000E+00
  0.00000000E+00  0.00000000E+00  0.00000000E+00
  0.00000000E+00  0.00000000E+00  0.00000000E+00
  0.00000000E+00  0.00000000E+00  0.00000000E+00
  0.00000000E+00  0.00000000E+00  0.00000000E+00
  0.00000000E+00  0.00000000E+00  0.00000000E+00
  0.00000000E+00  0.00000000E+00  0.00000000E+00
  0.00000000E+00  0.00000000E+00  0.00000000E+00
  0.00000000E+00  0.00000000E+00  0.00000000E+00
  0.00000000E+00  0.00000000E+00  0.00000000E+00
  0.00000000E+00  0.00000000E+00  0.00000000E+00
  0.00000000E+00  0.00000000E+00  0.00000000E+00
