generated by pypospack
   4.98831
  1.381764  -0.000285   0.005923
 -0.000362   2.050320  -0.006914
  0.008537  -0.007096   2.038850
 Nb Ta Zr Hf
 12 9 7 8
Direct
  0.258371   0.169906   0.178344
  0.991987   0.659377   0.663914
  0.529766   0.661827   0.007810
  0.996776   0.978899   0.327222
  0.500449   0.985640   0.345615
  0.733866   0.835280   0.180486
  0.506874   0.348747   0.334938
  0.988865   0.351935   0.313892
  0.998607   0.336212   0.683269
  0.243546   0.827902   0.494911
  0.493986   0.335633   0.995839
  0.249320   0.174108   0.834344
  0.264182   0.504794   0.168524
  0.745080   0.501966   0.829163
  0.730066   0.497706   0.175306
  0.035523  -0.000373   0.668270
  0.503813   0.666138   0.341214
  0.760541   0.505749   0.496697
  0.995381   0.666529   0.324896
  0.515430   0.655055   0.655435
  0.478599   0.007665   0.990326
  0.012884   0.003381   0.001373
  0.771162   0.164002   0.494757
  0.748867   0.164665   0.830672
  0.731003   0.166594   0.169853
  0.503819   0.336028   0.662229
  0.750090   0.833877   0.824466
  0.237982   0.497823   0.497660
  0.257853   0.511617   0.837738
  0.231963   0.169943   0.484725
  0.998383   0.339174   0.002310
  0.973863   0.662097   0.017385
  0.267291   0.828201   0.165852
  0.472061   0.003569   0.660938
  0.761368   0.830548   0.504131
  0.260370   0.817791   0.835492
