generated by pypospack
   4.98831
  1.402123  -0.000632   0.006626
 -0.000900   2.058104  -0.000569
  0.009789  -0.000793   2.039667
 Nb Ta Hf Zr
 11 6 10 9
Direct
  0.262433   0.171421   0.175424
  0.019708   0.671038   0.656830
  0.540518   0.663933   0.006116
  0.720943   0.831749   0.177470
  0.506544   0.343010   0.342284
  0.984913   0.343351   0.316381
  0.013633   0.328474   0.683180
  0.236978   0.829633   0.490146
  0.486472   0.320802  -0.002007
  0.249430   0.167504   0.834253
  0.490341   0.992104   0.338554
  0.729899   0.495699   0.179413
  0.037546   0.998622   0.672042
  0.512157   0.668203   0.345895
  0.769010   0.503948   0.494396
  0.982515   0.668547   0.325691
  0.479466   0.013548   0.004840
  0.267063   0.504040   0.167717
  0.492723   0.662786   0.648314
  0.257835   0.508821   0.844943
  0.229440   0.174271   0.487088
  0.008024   0.329903   0.005063
  0.968189   0.666915   0.021164
  0.273982   0.820165   0.161183
  0.468765   0.999224   0.655375
  0.766086   0.837543   0.505001
  0.262473   0.822096   0.845360
  0.998963   0.989805   0.314578
  0.010515   0.003422   0.004826
  0.763333   0.166504   0.501094
  0.748808   0.161376   0.829988
  0.725997   0.173191   0.170940
  0.493692   0.335434   0.659726
  0.755034   0.839476   0.822938
  0.226600   0.494993   0.489835
  0.759968   0.498458   0.823955
