generated by pypospack
   4.98831
  1.365956  -0.006211  -0.004372
 -0.009042   2.021826   0.000087
 -0.006516   0.000017   2.040346
 Hf Nb Ta Zr
 5 11 13 7
Direct
  0.249378   0.834513   0.167536
  0.011507   0.328480   0.664169
  0.720439   0.171439   0.829905
  0.503422   0.670887   0.662793
  0.998070   0.008905   0.661087
  0.989203   0.665061   0.998158
  0.498533   0.663499   0.342357
  0.761373   0.833791   0.836724
  0.254752   0.494211   0.497631
  0.509847   0.001406   0.334858
  0.994279   0.999226   0.338399
  0.993580   0.664492   0.661747
  0.002981   0.331334   0.345307
  0.229357   0.519334   0.827761
  0.486774   0.339958   0.660710
  0.750704   0.161708   0.174224
  0.525251   0.990797   0.004060
  0.261978   0.844473   0.492802
  0.742166   0.839901   0.492239
  0.243588   0.506306   0.178002
  0.742932   0.491335   0.503012
  0.753793   0.840622   0.171098
  0.980442   0.002727   0.000137
  0.758567   0.498437   0.819654
  0.264659   0.164397   0.493437
  0.277671   0.151652   0.829884
  0.506571   0.991234   0.658256
  0.497717   0.332380   0.338748
  0.737136   0.168157   0.494251
  0.481189   0.343540   0.999447
  0.001614   0.667681   0.346577
  0.241350   0.835624   0.837258
  0.756915   0.491026   0.176514
  0.014341   0.330660   0.991520
  0.507839   0.664084   0.998047
  0.250081   0.156736   0.171694
