generated by pypospack                  
   4.98831000000000     
     1.3994563032520921    0.0037064478561808   -0.0018626471753176
     0.0054355743071786    2.0509122576950762    0.0048703542315370
    -0.0027463737622901    0.0047324021191163    2.0549387255804739
   Ta   Nb   Zr   Hf
     6    11    11     8
Direct
  0.2353896641962470  0.1717167936483041  0.8330362520260917
  0.7325433606043574  0.4968963888611755  0.1772405929241025
  0.5322793613866652  0.6681213650811555  0.0124766127205800
  0.0441562585561911  0.0050756095524136  0.6610170116511053
  0.5145076921777958  0.6703896310628233  0.3393357106058801
  0.7654626038220260  0.4983981599641493  0.4884707557633380
  0.0052269680046284  0.9940033382521505  0.3316371994448923
  0.4919021497861193  0.9893441387479789  0.3457931324399714
  0.7433317987332324  0.8301924013453227  0.1865405403814827
  0.2346500255578780  0.1697944621278011  0.4898253318969052
  0.5046359767318069  0.3386572377988872  0.3499425348609573
  0.2656919308597108  0.4985528414642907  0.8451670143658645
  0.9851552045559591  0.3373571812182038  0.3251019963199235
  0.0172975144612313  0.3393790481274903  0.6690499833448672
  0.9845431681872462  0.6697534460891459  0.3268816786775189
  0.2419858178941249  0.8338765320141235  0.4838514900855382
  0.4786184697587937  0.3354527583611465  0.9884789912234709
  0.2607294311110331  0.1660644684069844  0.1755424816906867
  0.9830762894599004  0.0054358338807090  0.0112719930336990
  0.7622270462199303  0.1634516578950860  0.5013411854554266
  0.7644334434052767  0.1707457365664062  0.8201463120879362
  0.2604278525791714  0.5047325186545807  0.1708428811984114
  0.5185641568771742  0.9971431998986368  0.9950720635391473
  0.7238303497686104  0.1789393665348204  0.1771887936719061
  0.7371617892714848  0.4912366892414156  0.8308346567238318
  0.4894914109397501  0.6634416881344947  0.6516791055703953
  0.4827582417299512  0.3316067163681891  0.6590331638739422
  0.7659140403689972  0.8383890204134626  0.8125577836979889
  0.0048074462357821  0.3368019342883606  0.0033010509591905
  0.9705847151179887  0.6614379739025628  0.0076553490898395
  0.2579367169179530  0.8281762098351032  0.1690117471498769
  0.4677005423849757  0.0025181283841637  0.6611400840104533
  0.7652994502906089  0.8390697971103805  0.5030239653051958
  0.2318959877974799  0.4965912869668535  0.4762352492533222
  0.0240278795330592  0.6525846746023569  0.6682750635201576
  0.2517622447168702  0.8246737651988871  0.8519942414361107
 
  0.00000000E+00  0.00000000E+00  0.00000000E+00
  0.00000000E+00  0.00000000E+00  0.00000000E+00
  0.00000000E+00  0.00000000E+00  0.00000000E+00
  0.00000000E+00  0.00000000E+00  0.00000000E+00
  0.00000000E+00  0.00000000E+00  0.00000000E+00
  0.00000000E+00  0.00000000E+00  0.00000000E+00
  0.00000000E+00  0.00000000E+00  0.00000000E+00
  0.00000000E+00  0.00000000E+00  0.00000000E+00
  0.00000000E+00  0.00000000E+00  0.00000000E+00
  0.00000000E+00  0.00000000E+00  0.00000000E+00
  0.00000000E+00  0.00000000E+00  0.00000000E+00
  0.00000000E+00  0.00000000E+00  0.00000000E+00
  0.00000000E+00  0.00000000E+00  0.00000000E+00
  0.00000000E+00  0.00000000E+00  0.00000000E+00
  0.00000000E+00  0.00000000E+00  0.00000000E+00
  0.00000000E+00  0.00000000E+00  0.00000000E+00
  0.00000000E+00  0.00000000E+00  0.00000000E+00
  0.00000000E+00  0.00000000E+00  0.00000000E+00
  0.00000000E+00  0.00000000E+00  0.00000000E+00
  0.00000000E+00  0.00000000E+00  0.00000000E+00
  0.00000000E+00  0.00000000E+00  0.00000000E+00
  0.00000000E+00  0.00000000E+00  0.00000000E+00
  0.00000000E+00  0.00000000E+00  0.00000000E+00
  0.00000000E+00  0.00000000E+00  0.00000000E+00
  0.00000000E+00  0.00000000E+00  0.00000000E+00
  0.00000000E+00  0.00000000E+00  0.00000000E+00
  0.00000000E+00  0.00000000E+00  0.00000000E+00
  0.00000000E+00  0.00000000E+00  0.00000000E+00
  0.00000000E+00  0.00000000E+00  0.00000000E+00
  0.00000000E+00  0.00000000E+00  0.00000000E+00
  0.00000000E+00  0.00000000E+00  0.00000000E+00
  0.00000000E+00  0.00000000E+00  0.00000000E+00
  0.00000000E+00  0.00000000E+00  0.00000000E+00
  0.00000000E+00  0.00000000E+00  0.00000000E+00
  0.00000000E+00  0.00000000E+00  0.00000000E+00
  0.00000000E+00  0.00000000E+00  0.00000000E+00
