generated by pypospack
   4.98831
  1.369875   0.001971  -0.000003
  0.002978   2.041922  -0.005068
  0.000022  -0.005011   2.047521
 Ta Nb Hf Zr
 10 11 9 6
Direct
  0.228738   0.495564   0.180573
  0.243025   0.507396   0.495727
  0.243883   0.522216   0.822340
  0.014881   0.677631   0.004800
  0.228891   0.840196   0.181215
  0.753913   0.506955   0.495868
  0.768973   0.835001   0.179228
  0.997669   0.982354   0.010204
  0.754032   0.168851   0.170007
  0.243516   0.831761   0.821136
  0.506446   0.002577   0.330129
  0.988943   0.004889   0.332914
  0.251336   0.162868   0.488685
  0.998463   0.013710   0.657208
  0.001487   0.665518   0.332002
  0.007498   0.659693   0.665854
  0.746023   0.162363   0.489816
  0.500653   0.007349   0.653878
  0.490424   0.658178   0.662937
  0.994421   0.332238   0.346997
  0.501359   0.337584   0.339077
  0.480213   0.340131   0.002760
  0.241595   0.166184   0.178306
  0.003956   0.330877   0.657753
  0.245910   0.835575   0.503794
  0.753583   0.158940   0.841705
  0.759920   0.508186   0.836149
  0.496657   0.662661   0.326831
  0.771093   0.491406   0.166410
  0.752035   0.831654   0.503303
  0.253352   0.140404   0.829624
  0.034831   0.336766   0.987644
  0.502430   0.985808   0.015720
  0.497149   0.334649   0.659357
  0.489621   0.669525   0.008602
  0.753080   0.832345   0.821451
