generated by pypospack
   4.98831
  1.376665  -0.001902  -0.001104
 -0.002877   2.052036  -0.004464
 -0.001720  -0.004454   2.072816
 Ta Zr Hf Nb
 10 9 9 8
Direct
  0.994849   0.333888   0.000826
 -0.015328  -0.002078   0.340402
  0.244389   0.485582   0.144559
  0.997534   0.331977   0.688138
  0.246124   0.493898   0.833983
  0.231816   0.851199   0.190719
  0.248329   0.837440   0.491630
  0.742046   0.174292   0.153923
  0.500268   0.978729   0.661164
  0.755155   0.489482   0.148199
  0.733141   0.169393   0.837538
  0.994009   0.989894   0.995633
  0.258985   0.170256   0.507606
  0.262475   0.172766   0.836191
  0.005362   0.668611   0.998207
  0.737838   0.174880   0.513728
  0.502346   0.347531   0.324044
  0.766312   0.501011   0.513337
  0.499024   0.672744   0.669004
  0.254915   0.164133   0.161338
  0.997201   0.993616   0.662111
  0.993422   0.335155   0.320987
  0.232461   0.497130   0.518863
  0.004908   0.662336   0.324873
  0.506449   0.975722   0.007984
  0.524023   0.996300   0.329023
  0.498286   0.668839   0.001863
  0.498261   0.667708   0.321177
  0.773478   0.832646   0.174890
  0.002596   0.677185   0.672809
  0.248376   0.831031   0.816399
  0.502487   0.344147   0.001639
  0.501853   0.356505   0.680091
  0.751186   0.494822   0.836226
  0.754357   0.830928   0.499301
  0.751070   0.830302   0.821590
