generated by pypospack
   4.98831
  1.387656  -0.004821   0.005784
 -0.007099   2.044093  -0.007092
  0.008348  -0.007226   2.050531
 Zr Ta Nb Hf
 8 9 11 8
Direct
  0.255920   0.171093   0.180230
  0.018275   0.001396  -0.000888
  0.770002   0.164477   0.495362
  0.750618   0.163452   0.829953
  0.733512   0.165119   0.170979
  0.499776   0.330542   0.663356
  0.739084   0.842857   0.828461
  0.244996   0.495563   0.495056
  0.263640   0.507195   0.167656
  0.731304   0.494872   0.836426
  0.733856   0.498229   0.174188
  0.033856   0.994039   0.668428
  0.507212   0.665133   0.337645
  0.753129   0.500042   0.490530
  0.997436   0.665708   0.327898
  0.526599   0.656774   0.656380
  0.473305   0.012444   0.995308
 -0.017345   0.658438   0.669669
  0.534295   0.661674   0.011139
 -0.000435   0.977978   0.328411
  0.497831   0.987492   0.343404
  0.739911   0.834647   0.180280
  0.505676   0.347894   0.331742
  0.989180   0.353877   0.314471
 -0.004008   0.342710   0.681737
  0.249925   0.829657   0.490975
  0.494947   0.331674   0.997964
  0.243477   0.174599   0.831744
  0.269708   0.510758   0.840256
  0.227942   0.170377   0.485711
 -0.002964   0.339998   0.001775
  0.975371   0.662570   0.010503
  0.267599   0.825670   0.166402
  0.467711   0.006869   0.658047
  0.756368   0.836159   0.500739
  0.272281   0.818029   0.838061
