generated by pypospack
   4.98831
  1.369235   0.001446  -0.000018
  0.002193   2.042214  -0.005487
  0.000002  -0.005429   2.048354
 Hf Nb Ta Zr
 9 10 11 6
Direct
  0.480085   0.340118   0.002079
  0.243105   0.165671   0.178294
  0.003036   0.330829   0.655288
  0.245319   0.835279   0.503552
  0.754007   0.159361   0.841383
  0.760459   0.507569   0.836060
  0.496229   0.663672   0.326510
  0.770511   0.491687   0.165745
  0.752820   0.831542   0.502948
  0.506575   0.001929   0.330321
  0.989168   0.006327   0.333002
  0.251760   0.162198   0.488829
  0.998639   0.012513   0.657929
  0.001483   0.664131   0.331914
  0.007512   0.660198   0.666386
  0.745102   0.161446   0.490464
  0.500416   0.007242   0.654079
  0.490589   0.658208   0.663014
  0.993871   0.332501   0.348490
  0.228915   0.495684   0.180323
  0.243963   0.507962   0.495866
  0.243368   0.521786   0.822190
  0.014964   0.677511   0.004510
  0.228092   0.840482   0.181303
  0.501993   0.337601   0.338695
  0.752498   0.507852   0.496054
  0.769755   0.835050   0.179487
  0.997339   0.982720   0.010240
  0.754322   0.169392   0.170242
  0.242889   0.831851   0.821286
  0.252644   0.140880   0.829464
  0.035781   0.336541   0.988692
  0.502977   0.985553   0.015290
  0.496838   0.334603   0.660080
  0.489294   0.669675   0.008460
  0.753682   0.832440   0.821535
