generated by pypospack                  
   4.98831000000000     
     1.3952376170209526    0.0014502831997720    0.0034138250259599
     0.0021822615760469    2.0563183967041927   -0.0005158664158070
     0.0051322562873292   -0.0005802365968354    2.0487268034438171
   Hf   Zr   Nb   Ta
    13     6     8     9
Direct
  0.7214464218181674  0.8427718258979255  0.4985749101046398
  0.0033713816148738  0.0004761651493114  0.6719972627292851
  0.7518209362080166  0.4892058521013820  0.8320986271056815
  0.2364892985488960  0.5045991650408871  0.1504626173618728
  0.0181437707105954  0.6792835710366382  0.3462250384487446
  0.5046101634058773  0.0011303268447115 -0.0001009027001024
  0.7497364100867080  0.1722118734543000  0.4998582328807845
  0.7696650188747013  0.4855705937038235  0.5000843778169084
  0.4823815337485740  0.6660377699859474  0.3346334265858968
  0.4863501481222300  0.6580087482403345  0.6692598230026129
  0.4690222951214522  0.3444389038407149  0.3424103820972788
  0.0206918453707992  0.9973567092978173  0.3327810439179457
  0.7489778050014753  0.1833146419916979  0.1817662604924897
  0.9949710261544102  0.0015210651523918 -0.0034488544719946
  0.0093625808007418  0.3118355821741507  0.9899106721113650
  0.0075912654098588  0.6729255953167351  0.6660496929262952
  0.4824375773734577 -0.0020630172552249  0.3135099468043111
  0.7559640945659830  0.4927101250292479  0.1692520369657075
  0.5079201144653458  0.6765363023457491  0.9969262990884999
  0.7522188534980332  0.8267315964266958  0.8320643655389307
  0.2569315311837991  0.1760536540862583  0.1659597236088486
  0.2214546555877752  0.4901629861412023  0.5086903596460429
  0.9916552433141023  0.6761727245821602  0.9919548408976032
  0.4978676000725565  0.0047647799689973  0.6802728104513128
  0.7357503204930449  0.1792912746149862  0.8194968413709137
  0.7707963504939427  0.8308081844446520  0.1692314642254628
  0.2665519526243726  0.1665342362788527  0.8215861914999090
  0.2569782900839425  0.1636112268334681  0.5097301649331574
  0.0329803882270858  0.3241765820300683  0.3406330821323188
  0.0157049056607827  0.3238937950889152  0.6710288282798036
  0.2460934020039516  0.4936934965942560  0.8410831198638636
  0.2828898557063969  0.8510374733187116  0.5137731487317024
  0.2515558910351227  0.8353034633781566  0.8365966467869250
  0.2276603952152832  0.8185878744159921  0.1483124557072765
  0.4820394680692631  0.3390857712407226  0.6654737816650951
  0.4899022093283819  0.3222300812073640  0.9918552813925960
 
  0.00000000E+00  0.00000000E+00  0.00000000E+00
  0.00000000E+00  0.00000000E+00  0.00000000E+00
  0.00000000E+00  0.00000000E+00  0.00000000E+00
  0.00000000E+00  0.00000000E+00  0.00000000E+00
  0.00000000E+00  0.00000000E+00  0.00000000E+00
  0.00000000E+00  0.00000000E+00  0.00000000E+00
  0.00000000E+00  0.00000000E+00  0.00000000E+00
  0.00000000E+00  0.00000000E+00  0.00000000E+00
  0.00000000E+00  0.00000000E+00  0.00000000E+00
  0.00000000E+00  0.00000000E+00  0.00000000E+00
  0.00000000E+00  0.00000000E+00  0.00000000E+00
  0.00000000E+00  0.00000000E+00  0.00000000E+00
  0.00000000E+00  0.00000000E+00  0.00000000E+00
  0.00000000E+00  0.00000000E+00  0.00000000E+00
  0.00000000E+00  0.00000000E+00  0.00000000E+00
  0.00000000E+00  0.00000000E+00  0.00000000E+00
  0.00000000E+00  0.00000000E+00  0.00000000E+00
  0.00000000E+00  0.00000000E+00  0.00000000E+00
  0.00000000E+00  0.00000000E+00  0.00000000E+00
  0.00000000E+00  0.00000000E+00  0.00000000E+00
  0.00000000E+00  0.00000000E+00  0.00000000E+00
  0.00000000E+00  0.00000000E+00  0.00000000E+00
  0.00000000E+00  0.00000000E+00  0.00000000E+00
  0.00000000E+00  0.00000000E+00  0.00000000E+00
  0.00000000E+00  0.00000000E+00  0.00000000E+00
  0.00000000E+00  0.00000000E+00  0.00000000E+00
  0.00000000E+00  0.00000000E+00  0.00000000E+00
  0.00000000E+00  0.00000000E+00  0.00000000E+00
  0.00000000E+00  0.00000000E+00  0.00000000E+00
  0.00000000E+00  0.00000000E+00  0.00000000E+00
  0.00000000E+00  0.00000000E+00  0.00000000E+00
  0.00000000E+00  0.00000000E+00  0.00000000E+00
  0.00000000E+00  0.00000000E+00  0.00000000E+00
  0.00000000E+00  0.00000000E+00  0.00000000E+00
  0.00000000E+00  0.00000000E+00  0.00000000E+00
  0.00000000E+00  0.00000000E+00  0.00000000E+00
