AuPt                                    
   1.00000000000000     
     8.0773146332050896    0.0084805815933502   -0.0158717140779331
     0.0088378616154431    8.0354635788475690    0.0005736264472841
    -0.0162564099969788    0.0007593038962786    8.0723989261063362
   Au   Pt
    12    20
Direct
  0.0001554155632266  0.2485883109473288  0.2507579651921167
  0.2512095291389076  0.7512011712467793  0.4986975471205697
 -0.0000495946811007  0.2485816658971440  0.7494302335465790
  0.4992582655579305  0.5018796097269936  0.5004166954158503
  0.9992277968508952  0.0002137175790315  0.4985040314496740
  0.7503512482089892  0.7511056035250003  0.5021520324228771
  0.2504755844899959  0.0018724114547073  0.7506095693996352
  0.7474519779381887  0.2489021885228158  0.0009716452062236
  0.5015130802792230  0.2514580940183940  0.2493065728335203
  0.7487789784133840  0.4993898694013628  0.7490109316338555
  0.0021492340014471  0.4990782738754360  0.0007713853531706
  0.7493278536336357  0.7486382543437784 -0.0001510959587940
  0.0030944203694103  0.7494030756402917  0.7523265676944971
  0.0036522866636845  0.4997845143243790  0.4981883845706410
  0.2542115538859297  0.2500798583685357 -0.0003136197887619
  0.4981137252714579  0.7514339348821043  0.2450175599558979
  0.2495201184816595  0.5020266860950940  0.2487340829518148
  0.2528676372083318  0.2524653241230753  0.4977778756603479
  0.7454989547438566  0.9992555452760860  0.7511667303280991
  0.7518840799182001  0.5038451470292246  0.2550426366076168
  0.7481393383426204  0.2484154116915096  0.5005056652635173
  0.0009887273458250  0.9944907470926697  0.0026328512719039
  0.4987486491633252  0.2481488940139081  0.7502036239408585
  0.4985511688446395  0.9982270346635823  0.0003200561644204
  0.5031516508804367  0.0034810940512376  0.4997093887110335
  0.4918770196110423  0.5022014024798309  0.9990352905579524
  0.2531910213533457 -0.0005781684335339  0.2447557429233649
  0.2500555775897575  0.7496340102526297  0.0013567362660535
  0.4959559822904773  0.7525322009959935  0.7545259103771320
  0.0018032405554800  0.7505159994256495  0.2485447039784758
  0.7474304297017651  0.9950328470818425  0.2493908461788022
  0.2514130483840166  0.4986892704071049  0.7506024527710597
 
  0.00000000E+00  0.00000000E+00  0.00000000E+00
  0.00000000E+00  0.00000000E+00  0.00000000E+00
  0.00000000E+00  0.00000000E+00  0.00000000E+00
  0.00000000E+00  0.00000000E+00  0.00000000E+00
  0.00000000E+00  0.00000000E+00  0.00000000E+00
  0.00000000E+00  0.00000000E+00  0.00000000E+00
  0.00000000E+00  0.00000000E+00  0.00000000E+00
  0.00000000E+00  0.00000000E+00  0.00000000E+00
  0.00000000E+00  0.00000000E+00  0.00000000E+00
  0.00000000E+00  0.00000000E+00  0.00000000E+00
  0.00000000E+00  0.00000000E+00  0.00000000E+00
  0.00000000E+00  0.00000000E+00  0.00000000E+00
  0.00000000E+00  0.00000000E+00  0.00000000E+00
  0.00000000E+00  0.00000000E+00  0.00000000E+00
  0.00000000E+00  0.00000000E+00  0.00000000E+00
  0.00000000E+00  0.00000000E+00  0.00000000E+00
  0.00000000E+00  0.00000000E+00  0.00000000E+00
  0.00000000E+00  0.00000000E+00  0.00000000E+00
  0.00000000E+00  0.00000000E+00  0.00000000E+00
  0.00000000E+00  0.00000000E+00  0.00000000E+00
  0.00000000E+00  0.00000000E+00  0.00000000E+00
  0.00000000E+00  0.00000000E+00  0.00000000E+00
  0.00000000E+00  0.00000000E+00  0.00000000E+00
  0.00000000E+00  0.00000000E+00  0.00000000E+00
  0.00000000E+00  0.00000000E+00  0.00000000E+00
  0.00000000E+00  0.00000000E+00  0.00000000E+00
  0.00000000E+00  0.00000000E+00  0.00000000E+00
  0.00000000E+00  0.00000000E+00  0.00000000E+00
  0.00000000E+00  0.00000000E+00  0.00000000E+00
  0.00000000E+00  0.00000000E+00  0.00000000E+00
  0.00000000E+00  0.00000000E+00  0.00000000E+00
  0.00000000E+00  0.00000000E+00  0.00000000E+00
