generated by pypospack
   4.98831
  1.382891  -0.001744   0.000766
 -0.002563   2.053384   0.001962
  0.001205   0.001882   2.047058
 Zr Hf Nb Ta
 8 10 8 10
Direct
  0.999482   0.005410   0.005024
 -0.000810   0.995081   0.326362
  0.000796   0.317572   0.999235
  0.010577   0.665713   0.661059
  0.501757   0.993760   0.324575
  0.752216   0.501408   0.165228
  0.494952   0.678885   0.987493
  0.757544   0.839394   0.820959
  0.009086   0.006918   0.670958
  0.744066   0.486894   0.829203
  0.247775   0.505854   0.157289
  0.002779   0.680462   0.344762
  0.500750   0.004577   0.006807
  0.753282   0.167042   0.504342
  0.768276   0.480703   0.502962
  0.496113   0.675207   0.343139
  0.486287   0.662016   0.658494
  0.477769   0.334508   0.338468
  0.251916   0.173178   0.171402
  0.224246   0.486924   0.501295
  0.011681   0.671815   0.991104
  0.749285   0.182185   0.180523
  0.492948   0.006648   0.670778
  0.740707   0.175192   0.822493
  0.764017   0.812023   0.154107
  0.259243   0.167246   0.826927
  0.245219   0.159631   0.507038
  0.021834   0.323377   0.332805
  0.020360   0.329110   0.674573
  0.256020   0.490783   0.840470
  0.253238   0.857657   0.515369
  0.745805   0.851803   0.518534
  0.245973   0.843311   0.826912
  0.239852   0.815503   0.153996
  0.479057   0.334772   0.665941
  0.495885   0.317444   0.999375
