generated by pypospack
   4.98831
  1.406611   0.005392  -0.008918
  0.007914   2.058890  -0.002613
 -0.013272  -0.002672   2.059667
 Ta Zr Nb Hf
 10 12 5 9
Direct
  0.738843   0.835173   0.829601
  0.757941   0.845498   0.170934
  0.017128   0.993818   0.327730
  0.279502   0.501899   0.147341
  0.240504   0.828582   0.173940
  0.234814   0.834848   0.500483
  0.492431   0.984806   0.661477
  0.725618   0.499058   0.148975
  0.767956   0.151997   0.487091
  0.503637   0.673482  -0.001947
  0.006651   0.343468   0.315526
  0.499466   0.668401   0.328927
  0.712964   0.154005   0.844796
  0.010466  -0.000391  -0.000095
  0.235156   0.167179   0.504288
  0.276601   0.175775   0.830850
  0.993377   0.669018   0.000919
  0.504135   0.335460   0.337756
  0.791033   0.515534   0.506735
  0.501587   0.672862   0.664485
  0.768069   0.838379   0.498246
  0.253547   0.498178   0.833630
  0.002228   0.682767   0.684311
  0.253737   0.824754   0.824418
  0.502569   0.343458   0.006116
  0.740022   0.507307   0.844808
  0.254255   0.169957   0.167702
  0.966632   0.318267   0.680221
  0.746535   0.156129   0.174901
  0.000131   0.000557   0.677923
  0.225303   0.502695   0.514645
  0.007167   0.662336   0.312326
  0.478855   0.978138   0.009711
  0.482228   0.995895   0.334049
  0.532150   0.337160   0.650182
  0.996767   0.333555   0.007009
