generated by pypospack
   4.98831
  1.394847   0.002367   0.001305
  0.003504   2.068805  -0.000697
  0.001834  -0.000765   2.065087
 Zr Hf Nb Ta
 10 11 4 11
Direct
  0.500637   0.663639   0.323001
  0.735723   0.156525   0.838502
  0.018239   0.986765   0.002224
  0.222357   0.169278   0.487191
  0.271183   0.175997   0.842753
  0.005771   0.666146   0.004882
  0.513328   0.335450   0.339815
  0.777332   0.525267   0.514176
  0.486370   0.663113   0.676308
  0.758204   0.834400   0.510084
  0.981521   0.330006   0.679059
  0.753997   0.169000   0.155528
  0.241257   0.176821   0.164393
  0.028939  -0.001484   0.670186
  0.975041   0.347834   0.325698
  0.228558   0.506147   0.508161
  0.996655   0.664810   0.314223
  0.480109   0.975920   0.014352
  0.507489  -0.000456   0.335546
  0.518580   0.334632   0.658022
  0.741659   0.836338   0.827896
  0.024369   0.674654   0.685259
  0.264968   0.827581   0.826150
  0.502373   0.347983   0.994926
  0.748180   0.505515   0.841459
  0.749945   0.837844   0.164650
  0.997926   0.348740   0.993280
  0.984984   0.990755   0.329244
  0.264359   0.487007   0.150474
  0.254713   0.495207   0.841202
  0.244698   0.835360   0.192277
  0.241330   0.828035   0.491396
  0.479262   0.998742   0.652283
  0.731611   0.491600   0.144963
  0.771059   0.149382   0.499128
  0.497276   0.665456   0.001313
