generated by pypospack                  
   4.98831000000000     
     1.3937322813023196    0.0012466441284651   -0.0064689106981973
     0.0018824802819782    2.0556601422399776    0.0032501497765873
    -0.0096337022320493    0.0032768972593616    2.0430064154112482
   Zr   Ta   Nb   Hf
    10    12     6     8
Direct
  0.0091733626465436  0.3509392944452152  0.3305821696659651
  0.4912977289662129  0.6662126909974901  0.3254307118296268
  0.2394364840043141  0.1605162266979215  0.4942571792850990
  0.2764750908034447  0.1670847364815728  0.8319321800192299
  0.9975242298533652  0.6658352669945383  0.0056007622953930
  0.7664894424196677  0.5195064044373185  0.5051509771306680
  0.7628115491683964  0.8267997302992625  0.5082262339080780
  0.2559214796257656  0.4967338987727743  0.8309313203713137
  0.2573904965288323  0.1680570492544708  0.1664181013177899
  0.2415890906837633  0.8262324242041705  0.5152567356481846
  0.4998924374545426  0.3424636113345081  0.3430669131783228
  0.7331051786318448  0.8314099898126982  0.8355243020620824
  0.7375145377597013  0.8378879580731297  0.1558495625566695
  0.9977535095734792  0.9824963009164122  0.3155448541493758
  0.2796770122744048  0.4862491501321253  0.1549544347945368
  0.2638969839131039  0.8410974157552913  0.1505484765103331
  0.5164537334895957  0.0004189843722541  0.6626397531105150
  0.7278590603947506  0.4933082741697555  0.1652949544200758
  0.7575541393580586  0.1591243478989381  0.4807020598788737
  0.5040785207753035  0.6676052538581456  0.0014137262429996
  0.5029784826033205  0.6680343202735513  0.6821847893782851
  0.2477457539230573  0.5112870820663650  0.5146593084643162
  0.7124879892200585  0.1616821440408789  0.8420874856160461
  0.9980471794848828  0.6703299840017585  0.6910300153066500
  0.2609491039375766  0.8332647523195564  0.8346193944656271
  0.5178266579483098  0.3412911176059521  0.0005882721988907
  0.7388747685383441  0.5100790661331708  0.8345942102690287
  0.5025708261432223  0.9898602539535982  0.9980160183361260
  0.9913379674196161  0.0014486863747811  0.9966223337052377
  0.9797251729704640  0.3249409963929022  0.6707432379039617
  0.7425335964112069  0.1676759951508974  0.1770767323774005
  0.9776552265547085  0.0104744149890818  0.6827385931325626
  0.0134998689368969  0.6672601744004724  0.3136314890165724
  0.4993212343670257  0.9868816823267326  0.3374160603330786
  0.5189244185320869  0.3328491900905926  0.6500255096479549
  0.9796166846841255  0.3326731309717004  0.9946441414731220
 
  0.00000000E+00  0.00000000E+00  0.00000000E+00
  0.00000000E+00  0.00000000E+00  0.00000000E+00
  0.00000000E+00  0.00000000E+00  0.00000000E+00
  0.00000000E+00  0.00000000E+00  0.00000000E+00
  0.00000000E+00  0.00000000E+00  0.00000000E+00
  0.00000000E+00  0.00000000E+00  0.00000000E+00
  0.00000000E+00  0.00000000E+00  0.00000000E+00
  0.00000000E+00  0.00000000E+00  0.00000000E+00
  0.00000000E+00  0.00000000E+00  0.00000000E+00
  0.00000000E+00  0.00000000E+00  0.00000000E+00
  0.00000000E+00  0.00000000E+00  0.00000000E+00
  0.00000000E+00  0.00000000E+00  0.00000000E+00
  0.00000000E+00  0.00000000E+00  0.00000000E+00
  0.00000000E+00  0.00000000E+00  0.00000000E+00
  0.00000000E+00  0.00000000E+00  0.00000000E+00
  0.00000000E+00  0.00000000E+00  0.00000000E+00
  0.00000000E+00  0.00000000E+00  0.00000000E+00
  0.00000000E+00  0.00000000E+00  0.00000000E+00
  0.00000000E+00  0.00000000E+00  0.00000000E+00
  0.00000000E+00  0.00000000E+00  0.00000000E+00
  0.00000000E+00  0.00000000E+00  0.00000000E+00
  0.00000000E+00  0.00000000E+00  0.00000000E+00
  0.00000000E+00  0.00000000E+00  0.00000000E+00
  0.00000000E+00  0.00000000E+00  0.00000000E+00
  0.00000000E+00  0.00000000E+00  0.00000000E+00
  0.00000000E+00  0.00000000E+00  0.00000000E+00
  0.00000000E+00  0.00000000E+00  0.00000000E+00
  0.00000000E+00  0.00000000E+00  0.00000000E+00
  0.00000000E+00  0.00000000E+00  0.00000000E+00
  0.00000000E+00  0.00000000E+00  0.00000000E+00
  0.00000000E+00  0.00000000E+00  0.00000000E+00
  0.00000000E+00  0.00000000E+00  0.00000000E+00
  0.00000000E+00  0.00000000E+00  0.00000000E+00
  0.00000000E+00  0.00000000E+00  0.00000000E+00
  0.00000000E+00  0.00000000E+00  0.00000000E+00
  0.00000000E+00  0.00000000E+00  0.00000000E+00
