generated by pypospack                  
   4.98831000000000     
     1.3785378632902554   -0.0032152147639236    0.0020790224609591
    -0.0048479348595316    2.0519487974106982   -0.0010869431672276
     0.0030977771806195   -0.0010246041868873    2.0747603849908565
   Hf   Nb   Ta   Zr
     9     9     9     9
Direct
  0.2510705808863392  0.1639091031521796  0.1617051476932337
 -0.0108411689929108 -0.0020380594822285  0.6658988547534389
 -0.0027157850508856  0.3400694546979168  0.3204632979293644
  0.2371515858016562  0.4914140754102293  0.5283267234861617
  0.0256060734920749  0.6538383262793518  0.3290722182976786
  0.5096033093789660 -0.0140849468970288 -0.0017009434085626
  0.4984416342408905 -0.0088875575440711  0.3341915404302653
  0.4960617740752543  0.6685551373266805 -0.0016349320829295
  0.4854222776793555  0.6666069049502984  0.3249283925863047
 -0.0100835658633972  0.3311001066978930 -0.0007261609079512
  0.0017518323010646  0.6772718237464920  0.6716784321897094
  0.2488893469451094  0.8346075407650231  0.8157994462554099
  0.7355436627614441  0.1750505272249904  0.8356768009170892
  0.5092602059969913  0.3361360492421548  0.0005850199370352
  0.5139115732064894  0.3443987134353172  0.6852855621550412
  0.7525141829208573  0.4956400328693439  0.8372985328587683
  0.7546377398130771  0.8325936228185539  0.4963218163843328
  0.7522742693072805  0.8267236211101220  0.8196180021738577
  0.0017358274382283  0.0033488403720278  0.3470323798651541
  0.2456181396662264  0.4819117775229933  0.1382726851319802
 -0.0152107070304698  0.3275164390023063  0.6902828432595354
  0.2486512776238780  0.4903256780890415  0.8344753644925762
  0.2253402392481866  0.8516161614232995  0.1765909273002484
  0.2463097928509651  0.8376978002109737  0.5028183189141121
  0.7413108160135430  0.1739598356053332  0.1612320875813694
  0.5058300945628861 -0.0150400497234006  0.6643802610135486
  0.7551599665843822  0.4916898816988337  0.1488092619634987
 -0.0130483755509257 -0.0008211368266548 -0.0146007760751126
  0.2555926836248875  0.1711689064014823  0.5078608212901810
  0.2637299303604452  0.1725178875007069  0.8323973199444722
  0.0087673514062204  0.6657193626587016 -0.0062812933879234
  0.7385300873687319  0.1732367011506206  0.5065948058258388
  0.4983651888947278  0.3529300056142941  0.3218029823170219
  0.7628722496310560  0.5021473410452504  0.5128526315859595
  0.7807190967747053  0.8340317374151659  0.1817016803672486
  0.5012268116326674  0.6731383550358074  0.6709899469620436
 
  0.00000000E+00  0.00000000E+00  0.00000000E+00
  0.00000000E+00  0.00000000E+00  0.00000000E+00
  0.00000000E+00  0.00000000E+00  0.00000000E+00
  0.00000000E+00  0.00000000E+00  0.00000000E+00
  0.00000000E+00  0.00000000E+00  0.00000000E+00
  0.00000000E+00  0.00000000E+00  0.00000000E+00
  0.00000000E+00  0.00000000E+00  0.00000000E+00
  0.00000000E+00  0.00000000E+00  0.00000000E+00
  0.00000000E+00  0.00000000E+00  0.00000000E+00
  0.00000000E+00  0.00000000E+00  0.00000000E+00
  0.00000000E+00  0.00000000E+00  0.00000000E+00
  0.00000000E+00  0.00000000E+00  0.00000000E+00
  0.00000000E+00  0.00000000E+00  0.00000000E+00
  0.00000000E+00  0.00000000E+00  0.00000000E+00
  0.00000000E+00  0.00000000E+00  0.00000000E+00
  0.00000000E+00  0.00000000E+00  0.00000000E+00
  0.00000000E+00  0.00000000E+00  0.00000000E+00
  0.00000000E+00  0.00000000E+00  0.00000000E+00
  0.00000000E+00  0.00000000E+00  0.00000000E+00
  0.00000000E+00  0.00000000E+00  0.00000000E+00
  0.00000000E+00  0.00000000E+00  0.00000000E+00
  0.00000000E+00  0.00000000E+00  0.00000000E+00
  0.00000000E+00  0.00000000E+00  0.00000000E+00
  0.00000000E+00  0.00000000E+00  0.00000000E+00
  0.00000000E+00  0.00000000E+00  0.00000000E+00
  0.00000000E+00  0.00000000E+00  0.00000000E+00
  0.00000000E+00  0.00000000E+00  0.00000000E+00
  0.00000000E+00  0.00000000E+00  0.00000000E+00
  0.00000000E+00  0.00000000E+00  0.00000000E+00
  0.00000000E+00  0.00000000E+00  0.00000000E+00
  0.00000000E+00  0.00000000E+00  0.00000000E+00
  0.00000000E+00  0.00000000E+00  0.00000000E+00
  0.00000000E+00  0.00000000E+00  0.00000000E+00
  0.00000000E+00  0.00000000E+00  0.00000000E+00
  0.00000000E+00  0.00000000E+00  0.00000000E+00
  0.00000000E+00  0.00000000E+00  0.00000000E+00
