generated by pypospack
   4.98831
  1.383055  -0.001420   0.001425
 -0.002015   2.043022  -0.003156
  0.002132  -0.003186   2.062646
 Ta Hf Nb Zr
 10 9 9 8
Direct
  0.766183   0.841870   0.500582
  0.238587   0.494890   0.174205
  0.225344   0.528683   0.828920
 -0.000388   0.668763   0.010417
  0.227510   0.833669   0.180517
  0.758497   0.491919   0.492428
  0.771831   0.830977   0.176017
  0.998752   0.984272   0.014406
  0.770522   0.518959   0.832746
  0.995231   0.664909   0.332948
  0.503372   0.983526   0.024927
  0.743891   0.166381   0.491575
  0.764621   0.836273   0.825130
  0.485670   0.349295   0.983306
  0.244634   0.171600   0.175424
  0.006583   0.331971   0.665054
  0.234896   0.839521   0.498710
  0.744634   0.148705   0.832170
  0.509425   0.663890   0.660017
  0.238256   0.503024   0.494795
  0.501329   0.990290   0.328994
 -0.002012   0.995415   0.330455
  0.254937   0.160913   0.491169
  0.002763   0.017798   0.655509
  0.989072   0.658321   0.657590
  0.507371   0.988276   0.648100
  0.014351   0.341799   0.347178
  0.481122   0.344131   0.347385
  0.752808   0.169852   0.172846
  0.242193   0.832803   0.826454
  0.754547   0.487618   0.173010
  0.501322   0.665449   0.337297
  0.264289   0.142283   0.831114
  0.014753   0.341924   0.983171
  0.495639   0.344923   0.672140
  0.497460   0.665109   0.003289
