generated by pypospack                  
   4.98831000000000     
     1.3635196329065666    0.0010641090276382   -0.0002204846026280
     0.0016188890069984    2.0459962107091809   -0.0012656047852644
    -0.0003054529674407   -0.0012344501761641    2.0419567108732064
   Hf   Zr   Nb   Ta
     8     6    10    12
Direct
  0.7439941844164216  0.1622167349835626  0.4926662879766249
  0.7544216422835851  0.8313260801791057  0.8237780267842278
  0.4984641954763170  0.3414052725063726  0.9946161338493769
  0.2433458802047941  0.1720511811481300  0.1757054979615947
  0.0034152549422950  0.3393217280744173  0.6643921823946555
  0.2439079317189856  0.8331056153201725  0.5015884576769707
  0.7543798349618612  0.1473286947323063  0.8279981388884617
  0.7683069490662453  0.4882188823611277  0.1773793573530691
  0.5020972538433730  0.6690975846660341  0.3287035012111112
  0.2449714600886670  0.1420823575398168  0.8300414531744428
  0.0043752980193186  0.3405842638635754  0.9851487120383213
  0.5040855537843170  0.9939508477250331  0.0152161823749355
  0.4977406062736676  0.3425025860134073  0.6726459947505100
  0.4940781905458425  0.6653426861274361  0.0062893042866769
  0.5031403034230371  0.9945128789981486  0.3267428292860913
  0.9946803895445067  0.9977346780347699  0.3307617856745568
  0.2531114814164884  0.1611008376062856  0.4920929782786424
  0.0044471625085769  0.0001214397879170  0.6568993787501851
  0.9982202940319331  0.6678768996984740  0.3335645435903518
  0.0003951117468851  0.6624951340483524  0.6635793497916981
  0.4955153048599620  0.9926211909735173  0.6548897456536443
  0.5000214281774031  0.6632067395406841  0.6628122527556994
  0.0061197486176574  0.3347657926153498  0.3491644242152026
  0.4934419857734006  0.3376871129414139  0.3418005815562098
  0.7552808356711311  0.8373172264306051  0.5031680673360940
  0.2358918290961556  0.4897810372989200  0.1789236365213462
  0.2466384059235456  0.5077356314493903  0.4973321086863935
  0.2430450382636816  0.5264170749762334  0.8258093358737542
  0.0081160357288441  0.6705775330526661  0.0019471552482845
  0.2277397239790694  0.8387940286858251  0.1747622480974406
  0.7530377994129290  0.5016186714069344  0.4944788339143369
  0.7722541273453655  0.8350123590081885  0.1724795960837185
  0.9949768054739633  0.9873767662192823  0.0104666113389126
  0.7528092705033328  0.1698192218135763  0.1789009180528125
  0.2441608216178854  0.8310961004932893  0.8246795620752484
  0.7593718612585553  0.5237971296796857  0.8285728264983883
 
  0.00000000E+00  0.00000000E+00  0.00000000E+00
  0.00000000E+00  0.00000000E+00  0.00000000E+00
  0.00000000E+00  0.00000000E+00  0.00000000E+00
  0.00000000E+00  0.00000000E+00  0.00000000E+00
  0.00000000E+00  0.00000000E+00  0.00000000E+00
  0.00000000E+00  0.00000000E+00  0.00000000E+00
  0.00000000E+00  0.00000000E+00  0.00000000E+00
  0.00000000E+00  0.00000000E+00  0.00000000E+00
  0.00000000E+00  0.00000000E+00  0.00000000E+00
  0.00000000E+00  0.00000000E+00  0.00000000E+00
  0.00000000E+00  0.00000000E+00  0.00000000E+00
  0.00000000E+00  0.00000000E+00  0.00000000E+00
  0.00000000E+00  0.00000000E+00  0.00000000E+00
  0.00000000E+00  0.00000000E+00  0.00000000E+00
  0.00000000E+00  0.00000000E+00  0.00000000E+00
  0.00000000E+00  0.00000000E+00  0.00000000E+00
  0.00000000E+00  0.00000000E+00  0.00000000E+00
  0.00000000E+00  0.00000000E+00  0.00000000E+00
  0.00000000E+00  0.00000000E+00  0.00000000E+00
  0.00000000E+00  0.00000000E+00  0.00000000E+00
  0.00000000E+00  0.00000000E+00  0.00000000E+00
  0.00000000E+00  0.00000000E+00  0.00000000E+00
  0.00000000E+00  0.00000000E+00  0.00000000E+00
  0.00000000E+00  0.00000000E+00  0.00000000E+00
  0.00000000E+00  0.00000000E+00  0.00000000E+00
  0.00000000E+00  0.00000000E+00  0.00000000E+00
  0.00000000E+00  0.00000000E+00  0.00000000E+00
  0.00000000E+00  0.00000000E+00  0.00000000E+00
  0.00000000E+00  0.00000000E+00  0.00000000E+00
  0.00000000E+00  0.00000000E+00  0.00000000E+00
  0.00000000E+00  0.00000000E+00  0.00000000E+00
  0.00000000E+00  0.00000000E+00  0.00000000E+00
  0.00000000E+00  0.00000000E+00  0.00000000E+00
  0.00000000E+00  0.00000000E+00  0.00000000E+00
  0.00000000E+00  0.00000000E+00  0.00000000E+00
  0.00000000E+00  0.00000000E+00  0.00000000E+00
