generated by pypospack
   4.98831
  1.363834   0.001030  -0.000690
  0.001571   2.042858  -0.001269
 -0.001008  -0.001235   2.043745
 Hf Zr Nb Ta
 8 6 10 12
Direct
  0.742813   0.162345   0.491928
  0.753971   0.831340   0.823519
  0.498998   0.341327   0.994748
  0.244785   0.172186   0.175881
  0.003427   0.338681   0.664448
  0.243585   0.832856   0.501147
  0.754136   0.147218   0.828193
  0.768678   0.489254   0.177720
  0.502147   0.668303   0.329675
  0.244941   0.142280   0.830586
  0.003208   0.340396   0.985164
  0.504344   0.993876   0.015022
  0.497884   0.342280   0.673203
  0.494021   0.665254   0.007214
  0.503281   0.992150   0.326194
  0.994429   0.998098   0.330299
  0.253596   0.161181   0.492182
  0.004518   0.001122   0.657058
  0.998105   0.667825   0.333942
  0.000279   0.662944   0.663750
  0.494909   0.992934   0.655195
  0.500006   0.663368   0.661171
  0.006640   0.334479   0.349248
  0.493380   0.340256   0.341241
  0.754822   0.836785   0.503060
  0.236277   0.490299   0.178894
  0.246048   0.508310   0.497569
  0.243463   0.526330   0.825635
  0.008491   0.670645   0.001329
  0.228082   0.838235   0.175408
  0.753826   0.501978   0.494418
  0.772294   0.833906   0.172707
  0.994943   0.987250   0.010568
  0.752226   0.169464   0.178912
  0.244278   0.831112   0.824508
  0.759169   0.523733   0.828262
