generated by pypospack
   4.98831
  1.376795   0.000811   0.000239
  0.001260   2.060702   0.006181
  0.000407   0.006079   2.061144
 Ta Zr Hf Nb
 9 8 10 9
Direct
  0.246034   0.182568   0.180380
  0.016657   0.327392   0.340848
  0.007184   0.337337   0.665750
  0.238852   0.483350   0.829992
  0.250722   0.861320   0.517655
  0.483201   0.324976   0.333238
  0.761818   0.491658   0.815838
  0.752042   0.851214   0.518006
  0.245031   0.842837   0.834331
  0.983303   0.011766   0.006796
 -0.000045   0.998507   0.329842
  0.988174   0.324962   0.998427
  0.013651   0.663934   0.659348
  0.500805   0.997573   0.326777
  0.753483   0.505664   0.175029
  0.502098   0.655609   0.978987
  0.755914   0.834158   0.828415
  0.255792   0.165846   0.821850
  0.244787   0.499331   0.166205
  0.234201   0.816119   0.140436
  0.011695   0.678022   0.351618
  0.510698   0.008824   0.010293
  0.746118   0.167852   0.506193
  0.508270   0.325634   0.001414
  0.742906   0.488358   0.498900
  0.493140   0.684490   0.346469
  0.489455   0.666062   0.663294
  0.002197   0.000938   0.669877
  0.261176   0.483606   0.496355
  0.996088   0.656020   0.980619
  0.751985   0.183599   0.193673
  0.499474   0.996143   0.669767
  0.741875   0.167860   0.812910
  0.493011   0.339732   0.668695
  0.764728   0.811117   0.155729
  0.253473   0.165623   0.506038
