generated by pypospack                  
   4.98831000000000     
     1.3932988654329457    0.0005582268203088    0.0087235063123136
     0.0008491478528814    2.0552844345646690   -0.0007066609805986
     0.0127624382704879   -0.0009236662710049    2.0414446108406046
   Ta   Hf   Nb   Zr
     6    10    12     8
Direct
  0.7276974446321067  0.4952128012276604  0.1786254755676029
  0.0369928528142735  0.9978276490467408  0.6729306924016536
  0.5123394092901238  0.6677428265765136  0.3455527369123890
  0.7691836924338634  0.5036118060862446  0.4940427815605005
  0.9819551603478002  0.6672706533173821  0.3254653565794525
  0.4798557099583461  0.0145319833627668  0.0008454615032747
  0.2672306628412769  0.5048296275308272  0.1669270565426016
  0.4926297784927255  0.6657844372957322  0.6460081921425732
  0.2616271893812480  0.5084907085453230  0.8446965046509961
  0.2283251853539921  0.1685075526821389  0.4844090889942684
  0.0060342451964172  0.3309126809172404  0.0046299013910141
  0.9673815689989550  0.6642535557240048  0.0195542721856489
  0.2644121698748250  0.8261849463227992  0.1661088825722337
  0.4707029342904950 -0.0008187442941023  0.6591247010638723
  0.7692010161155179  0.8393349749938422  0.5010643160355708
  0.2624616783154032  0.8202701398094735  0.8476046585537570
  0.2542176360837681  0.1669198225387704  0.1775218222702217
  0.0186742084535153  0.6713549377391540  0.6574664132894295
  0.5406615547556818  0.6677595788916073  0.0092693162851318
  0.9990595882479871  0.9907744332127855  0.3190249464911198
  0.4939300476648443  0.9914520316197991  0.3388210187041644
  0.7330052588395062  0.8373474829379339  0.1813090325364740
  0.5045976738702856  0.3418590703165850  0.3413124538628033
  0.9850205354363561  0.3420509919265804  0.3155080417398666
  0.0164277650239808  0.3292986592591550  0.6815817395437270
  0.2356025421121911  0.8339399298408816  0.4862341637196027
  0.4864266820743746  0.3175369936782333  0.0010208272228022
  0.2484764446097836  0.1692700788433962  0.8337776646897282
  0.0099572606492111  0.0053877730317502  0.0055970508720693
  0.7660589311160648  0.1646024110686276  0.4986214060695349
  0.7501642343249069  0.1634005760319493  0.8282273312053599
  0.7315536027835514  0.1679022349335070  0.1734761683656002
  0.4910996766490843  0.3336099035482534  0.6566526191813422
  0.7566250649144727  0.8385943873351708  0.8231690618819866
  0.2259409418446009  0.4950980539962913  0.4896761822717943
  0.7544606522084595  0.4978990501049727  0.8241376611398147
 
  0.00000000E+00  0.00000000E+00  0.00000000E+00
  0.00000000E+00  0.00000000E+00  0.00000000E+00
  0.00000000E+00  0.00000000E+00  0.00000000E+00
  0.00000000E+00  0.00000000E+00  0.00000000E+00
  0.00000000E+00  0.00000000E+00  0.00000000E+00
  0.00000000E+00  0.00000000E+00  0.00000000E+00
  0.00000000E+00  0.00000000E+00  0.00000000E+00
  0.00000000E+00  0.00000000E+00  0.00000000E+00
  0.00000000E+00  0.00000000E+00  0.00000000E+00
  0.00000000E+00  0.00000000E+00  0.00000000E+00
  0.00000000E+00  0.00000000E+00  0.00000000E+00
  0.00000000E+00  0.00000000E+00  0.00000000E+00
  0.00000000E+00  0.00000000E+00  0.00000000E+00
  0.00000000E+00  0.00000000E+00  0.00000000E+00
  0.00000000E+00  0.00000000E+00  0.00000000E+00
  0.00000000E+00  0.00000000E+00  0.00000000E+00
  0.00000000E+00  0.00000000E+00  0.00000000E+00
  0.00000000E+00  0.00000000E+00  0.00000000E+00
  0.00000000E+00  0.00000000E+00  0.00000000E+00
  0.00000000E+00  0.00000000E+00  0.00000000E+00
  0.00000000E+00  0.00000000E+00  0.00000000E+00
  0.00000000E+00  0.00000000E+00  0.00000000E+00
  0.00000000E+00  0.00000000E+00  0.00000000E+00
  0.00000000E+00  0.00000000E+00  0.00000000E+00
  0.00000000E+00  0.00000000E+00  0.00000000E+00
  0.00000000E+00  0.00000000E+00  0.00000000E+00
  0.00000000E+00  0.00000000E+00  0.00000000E+00
  0.00000000E+00  0.00000000E+00  0.00000000E+00
  0.00000000E+00  0.00000000E+00  0.00000000E+00
  0.00000000E+00  0.00000000E+00  0.00000000E+00
  0.00000000E+00  0.00000000E+00  0.00000000E+00
  0.00000000E+00  0.00000000E+00  0.00000000E+00
  0.00000000E+00  0.00000000E+00  0.00000000E+00
  0.00000000E+00  0.00000000E+00  0.00000000E+00
  0.00000000E+00  0.00000000E+00  0.00000000E+00
  0.00000000E+00  0.00000000E+00  0.00000000E+00
