generated by pypospack                  
   4.98831000000000     
     1.4011247560155546    0.0045934372675619    0.0050633724823799
     0.0067602295852633    2.0628806637107626    0.0008199817526805
     0.0071791509530281    0.0007718112981577    2.0705242513153785
   Ta   Nb   Hf   Zr
    10     5     9    12
Direct
  0.5007082938448838  0.6746260850391109  0.0086144291554739
  0.0055112191034531  0.6790078852011185  0.0124223731941673
  0.7403713359349591  0.8340598784289968  0.1625623830011191
  0.9887795629873681  0.9941737269764203  0.3199801884506507
  0.2585661285582133  0.8381781569889333  0.1647846750938965
  0.7444472187038603  0.1459936044099319  0.4867232719062481
  0.2171253945663809  0.5045812376956934  0.5053860855557105
  0.0434390191473217  0.6833349985822686  0.6711657990723269
  0.7451303427015372  0.5133549002507682  0.1509355770046046
  0.2369050116142708  0.8434182381762998  0.4833498300236583
  0.5065417606856791  0.9908476306621633  0.3284754321171765
  0.7324153788168695  0.1516350232930038  0.1741918122363944
  0.2542021322781717  0.8302453844167883  0.8497188282756573
  0.5347983175095531  0.3400239696616614  0.0131780933899529
  0.4998049547156690  0.9860767452095531  0.0041374085372185
  0.4779337377725815  0.9931277007139355  0.6641951869781418
  0.2810628169597986  0.1767639623672418  0.8523787209029953
  0.9957121585576051  0.9992460288197160  0.0027473421044284
  0.0107086749972225  0.0044049642868570  0.6745198828855247
  0.0040023958841323  0.6706002817092398  0.3185258191624293
  0.4970553636700564  0.3369262348333296  0.6459707688408828
  0.9717774777757038  0.3201107810126737  0.0066575583984710
  0.7570027214755441  0.5113508510241269  0.8372253788762759
  0.4672645107525328  0.6718296441919442  0.6579748059117899
  0.7143607374502597  0.1658581964482317  0.8377650735918999
  0.5132139760272102  0.3447780593241965  0.3405857112699709
  0.0024845118096351  0.3143280276859530  0.6684117963281982
  0.2576653815880896  0.4941658530947047  0.1502056189602878
  0.9786427564035410  0.3332370595441737  0.3289441369244061
  0.4944944249420787  0.6626050717700006  0.3342853592275192
  0.2515480458519070  0.1534755447448862  0.4787419770025030
  0.7864238634854951  0.5185347000068206  0.5225741388409231
  0.7604627574802858  0.8393629077676927  0.5018731045329963
  0.2550680734726220  0.4966128980634892  0.8415277514944098
  0.2623585199859123  0.1630633011030153  0.1676333640823419
  0.7519960224896036  0.8200634664950526  0.8316233166693523
 
  0.00000000E+00  0.00000000E+00  0.00000000E+00
  0.00000000E+00  0.00000000E+00  0.00000000E+00
  0.00000000E+00  0.00000000E+00  0.00000000E+00
  0.00000000E+00  0.00000000E+00  0.00000000E+00
  0.00000000E+00  0.00000000E+00  0.00000000E+00
  0.00000000E+00  0.00000000E+00  0.00000000E+00
  0.00000000E+00  0.00000000E+00  0.00000000E+00
  0.00000000E+00  0.00000000E+00  0.00000000E+00
  0.00000000E+00  0.00000000E+00  0.00000000E+00
  0.00000000E+00  0.00000000E+00  0.00000000E+00
  0.00000000E+00  0.00000000E+00  0.00000000E+00
  0.00000000E+00  0.00000000E+00  0.00000000E+00
  0.00000000E+00  0.00000000E+00  0.00000000E+00
  0.00000000E+00  0.00000000E+00  0.00000000E+00
  0.00000000E+00  0.00000000E+00  0.00000000E+00
  0.00000000E+00  0.00000000E+00  0.00000000E+00
  0.00000000E+00  0.00000000E+00  0.00000000E+00
  0.00000000E+00  0.00000000E+00  0.00000000E+00
  0.00000000E+00  0.00000000E+00  0.00000000E+00
  0.00000000E+00  0.00000000E+00  0.00000000E+00
  0.00000000E+00  0.00000000E+00  0.00000000E+00
  0.00000000E+00  0.00000000E+00  0.00000000E+00
  0.00000000E+00  0.00000000E+00  0.00000000E+00
  0.00000000E+00  0.00000000E+00  0.00000000E+00
  0.00000000E+00  0.00000000E+00  0.00000000E+00
  0.00000000E+00  0.00000000E+00  0.00000000E+00
  0.00000000E+00  0.00000000E+00  0.00000000E+00
  0.00000000E+00  0.00000000E+00  0.00000000E+00
  0.00000000E+00  0.00000000E+00  0.00000000E+00
  0.00000000E+00  0.00000000E+00  0.00000000E+00
  0.00000000E+00  0.00000000E+00  0.00000000E+00
  0.00000000E+00  0.00000000E+00  0.00000000E+00
  0.00000000E+00  0.00000000E+00  0.00000000E+00
  0.00000000E+00  0.00000000E+00  0.00000000E+00
  0.00000000E+00  0.00000000E+00  0.00000000E+00
  0.00000000E+00  0.00000000E+00  0.00000000E+00
