k-points
0
Gamma
3   3   3  
0.000000 0.000000 0.000000
