generated by pypospack                  
   4.98831000000000     
     1.4054742072399367    0.0095546480929325    0.0033408757761876
     0.0139969687987398    2.0503727638787934   -0.0003474489363434
     0.0049840728672699   -0.0005312977790163    2.0557854022567801
   Hf   Nb   Ta   Zr
    12    11     5     8
Direct
  0.4861973684548986  0.0023841389330196  0.9977984900087442
  0.2703160204962163  0.5078431440553483  0.1691072268714474
  0.5258397599217254  0.6684941043409839  0.6518601865236997
  0.2539167344147389  0.5080742704113996  0.8378634368161533
  0.2357853295096781  0.1654466479724254  0.4830319694889860
  0.0126894755610812  0.3332356192229604  0.0087045300467585
  0.9657972662790191  0.6610760363118411  0.0191730687376705
  0.2587821619614506  0.8201393731159662  0.1740347559770335
  0.4741756768199600  0.9989620634303940  0.6683477810324803
  0.7761945096213654  0.8442677056183728  0.4978587897720519
  0.2399486365161013  0.8107648338658944  0.8343475564115941
  0.2352952831504316  0.8310164700071989  0.4899189954980632
  0.2589549603333646  0.1700086190904343  0.1829068400233966
  0.9726627601271611  0.6523036179957500  0.6621080739768707
  0.5283331409054044  0.6781635427660251  0.0086060029961214
  0.7369587525791587  0.8353960483879480  0.1787584840589199
  0.5072089607002830  0.3416906864047590  0.3458359532253523
  0.9923048044601681  0.3437454474870237  0.3216264954468698
  0.0090663648105779  0.3340122575870338  0.6742279786939057
  0.4738786905718338  0.3173710993497816  0.0016696248689133
  0.2427153370062625  0.1789836972571445  0.8290787751694214
  0.5035611869802749  0.9923352627352079  0.3291150110593005
  0.9985045676808996  0.9974287128315392  0.3093490200612908
  0.7240159184093333  0.4942654444494388  0.1741878978057069
  0.0435712430350862  0.0114297795318665  0.6772264926369065
  0.5258693547084022  0.6672328447318919  0.3422837388762857
  0.7675162050507305  0.4960044674878081  0.4912949649307785
  0.9709398004993482  0.6593227956996399  0.3215653641284931
  0.0143287071068653  0.0056609256291401  0.0078959829428195
  0.7698109906187086  0.1632277888829633  0.4963929148999192
  0.7562939884785586  0.1678152220437511  0.8310017301778454
  0.7346917350351533  0.1726894405722504  0.1719240189033169
  0.4933897777114975  0.3314848930613408  0.6538930403114750
  0.7722474006948820  0.8409960192964764  0.8219897698906274
  0.2342047880248634  0.5062169452866623  0.4948760876560617
  0.7340303417645130  0.4905150341482982  0.8401389500747052
 
  0.00000000E+00  0.00000000E+00  0.00000000E+00
  0.00000000E+00  0.00000000E+00  0.00000000E+00
  0.00000000E+00  0.00000000E+00  0.00000000E+00
  0.00000000E+00  0.00000000E+00  0.00000000E+00
  0.00000000E+00  0.00000000E+00  0.00000000E+00
  0.00000000E+00  0.00000000E+00  0.00000000E+00
  0.00000000E+00  0.00000000E+00  0.00000000E+00
  0.00000000E+00  0.00000000E+00  0.00000000E+00
  0.00000000E+00  0.00000000E+00  0.00000000E+00
  0.00000000E+00  0.00000000E+00  0.00000000E+00
  0.00000000E+00  0.00000000E+00  0.00000000E+00
  0.00000000E+00  0.00000000E+00  0.00000000E+00
  0.00000000E+00  0.00000000E+00  0.00000000E+00
  0.00000000E+00  0.00000000E+00  0.00000000E+00
  0.00000000E+00  0.00000000E+00  0.00000000E+00
  0.00000000E+00  0.00000000E+00  0.00000000E+00
  0.00000000E+00  0.00000000E+00  0.00000000E+00
  0.00000000E+00  0.00000000E+00  0.00000000E+00
  0.00000000E+00  0.00000000E+00  0.00000000E+00
  0.00000000E+00  0.00000000E+00  0.00000000E+00
  0.00000000E+00  0.00000000E+00  0.00000000E+00
  0.00000000E+00  0.00000000E+00  0.00000000E+00
  0.00000000E+00  0.00000000E+00  0.00000000E+00
  0.00000000E+00  0.00000000E+00  0.00000000E+00
  0.00000000E+00  0.00000000E+00  0.00000000E+00
  0.00000000E+00  0.00000000E+00  0.00000000E+00
  0.00000000E+00  0.00000000E+00  0.00000000E+00
  0.00000000E+00  0.00000000E+00  0.00000000E+00
  0.00000000E+00  0.00000000E+00  0.00000000E+00
  0.00000000E+00  0.00000000E+00  0.00000000E+00
  0.00000000E+00  0.00000000E+00  0.00000000E+00
  0.00000000E+00  0.00000000E+00  0.00000000E+00
  0.00000000E+00  0.00000000E+00  0.00000000E+00
  0.00000000E+00  0.00000000E+00  0.00000000E+00
  0.00000000E+00  0.00000000E+00  0.00000000E+00
  0.00000000E+00  0.00000000E+00  0.00000000E+00
