generated by pypospack                  
   4.98831000000000     
     1.4016196759190325    0.0000099349943569    0.0027194886834286
    -0.0000340488257853    2.0819124904381425    0.0045114974884896
     0.0039959695929340    0.0044706278422937    2.0315449444012197
   Ta   Zr   Nb   Hf
     5    12    11     8
Direct
  0.7309959752800883  0.5031320419138956  0.1758818608838875
  0.5132130005402527  0.6688649516501542  0.9974994689126110
  0.0007224659186134  0.9967828279117662  0.3305743105483422
  0.0309301113073443  0.9892978876555095  0.6698759071896494
  0.5077798149928038  0.6746660710150597  0.3349594195588690
  0.2556465620272195  0.1669267703512411  0.1658919149671180
  0.9791690291096209  0.9905726971282074  0.0037375517297805
  0.7726773325116175  0.1673406698053634  0.5025596816269619
  0.2538754388894059  0.1686082021302088  0.8448738187391958
  0.7642287275789016  0.1704497596742490  0.8219077375538697
  0.2606340679599494  0.5055145246097115  0.1723868506015033
  0.5283200003102265  0.9820246979242003  0.9917474104722626
  0.7312553833946029  0.1765711069298971  0.1753232444565850
  0.4872845562981639  0.9975116320951858  0.3509208818774344
  0.7439630746313617  0.4927810567232661  0.8209255610064676
  0.4808288830385845  0.6714286985354141  0.6683909416983734
  0.4760953101236294  0.3292709561191037  0.6492654146801505
  0.7425633653179396  0.8223386251182225  0.1794917311466179
  0.2185423576414222  0.1687012656686955  0.4935071601743514
  0.4930786505344228  0.3312916568238182  0.3463279408997847
  0.2707895468149620  0.4951272271811356  0.8460664481569102
  0.9917158027423499  0.3332027392495376  0.3164083293706954
  0.0322646629401742  0.3366668867723288  0.6701362057636315
  0.9815545714509175  0.6732284888389426  0.3179963532449266
  0.2230210322126006  0.8294171752304886  0.4877390218807607
  0.2579936906744619  0.8353959000703695  0.8510750085193289
  0.5114219962006994  0.3502887719424727 -0.0007129391195881
  0.7556183786590140  0.8316712675355935  0.8152378878248967
  0.9901275824049084  0.3462080872266806  0.0092632022132707
  0.9909745442247029  0.6648389640503711  0.9971959784010316
  0.2539466599578132  0.8289675814193345  0.1676382393370490
  0.4785890372139077  0.9947904585269332  0.6634813702922503
  0.7700833653477342  0.8316560057286001  0.5059419296195832
  0.2283945023588640  0.5028542618226975  0.4809206079311520
  0.0286279392257027  0.6703230273568812  0.6832839642627636
  0.7630775801650121  0.5012880572644680  0.4922795835775139
 
  0.00000000E+00  0.00000000E+00  0.00000000E+00
  0.00000000E+00  0.00000000E+00  0.00000000E+00
  0.00000000E+00  0.00000000E+00  0.00000000E+00
  0.00000000E+00  0.00000000E+00  0.00000000E+00
  0.00000000E+00  0.00000000E+00  0.00000000E+00
  0.00000000E+00  0.00000000E+00  0.00000000E+00
  0.00000000E+00  0.00000000E+00  0.00000000E+00
  0.00000000E+00  0.00000000E+00  0.00000000E+00
  0.00000000E+00  0.00000000E+00  0.00000000E+00
  0.00000000E+00  0.00000000E+00  0.00000000E+00
  0.00000000E+00  0.00000000E+00  0.00000000E+00
  0.00000000E+00  0.00000000E+00  0.00000000E+00
  0.00000000E+00  0.00000000E+00  0.00000000E+00
  0.00000000E+00  0.00000000E+00  0.00000000E+00
  0.00000000E+00  0.00000000E+00  0.00000000E+00
  0.00000000E+00  0.00000000E+00  0.00000000E+00
  0.00000000E+00  0.00000000E+00  0.00000000E+00
  0.00000000E+00  0.00000000E+00  0.00000000E+00
  0.00000000E+00  0.00000000E+00  0.00000000E+00
  0.00000000E+00  0.00000000E+00  0.00000000E+00
  0.00000000E+00  0.00000000E+00  0.00000000E+00
  0.00000000E+00  0.00000000E+00  0.00000000E+00
  0.00000000E+00  0.00000000E+00  0.00000000E+00
  0.00000000E+00  0.00000000E+00  0.00000000E+00
  0.00000000E+00  0.00000000E+00  0.00000000E+00
  0.00000000E+00  0.00000000E+00  0.00000000E+00
  0.00000000E+00  0.00000000E+00  0.00000000E+00
  0.00000000E+00  0.00000000E+00  0.00000000E+00
  0.00000000E+00  0.00000000E+00  0.00000000E+00
  0.00000000E+00  0.00000000E+00  0.00000000E+00
  0.00000000E+00  0.00000000E+00  0.00000000E+00
  0.00000000E+00  0.00000000E+00  0.00000000E+00
  0.00000000E+00  0.00000000E+00  0.00000000E+00
  0.00000000E+00  0.00000000E+00  0.00000000E+00
  0.00000000E+00  0.00000000E+00  0.00000000E+00
  0.00000000E+00  0.00000000E+00  0.00000000E+00
