generated by pypospack
   4.98831
  1.366125  -0.004057  -0.001460
 -0.005859   2.025092  -0.000674
 -0.002134  -0.000711   2.050703
 Ta Hf Nb Zr
 15 7 9 5
Direct
  0.521121   0.988052   0.998374
  0.244604   0.838801   0.496202
  0.758095   0.839251   0.496535
  0.242896   0.508994   0.177846
  0.981994   0.668088   0.002657
  0.754050   0.498936   0.492814
  0.751543   0.834057   0.172946
  0.982570   0.990720   0.001419
  0.766788   0.497782   0.826003
  0.996518   0.667790   0.339064
  0.255960   0.157507   0.495391
  0.261839   0.140045   0.831920
  0.501398   0.990296   0.660460
  0.480703   0.341315   0.349090
  0.749084   0.164599   0.172486
  0.249007   0.828808   0.170251
  0.481822   0.342614   0.668569
  0.749888   0.165866   0.497152
  0.020293   0.333401   0.665460
  0.743444   0.163990   0.830863
  0.507798   0.670931   0.660639
  0.475009   0.343398   0.985085
  0.498249   0.664504   0.342613
  0.758160   0.838116   0.829880
  0.243499   0.508004   0.493098
  0.503090   0.993156   0.339898
 -0.000068   0.991406   0.336270
  0.005361   0.003771   0.662494
  0.990837   0.665520   0.659881
  0.019661   0.343100   0.346091
  0.221161   0.528965   0.830799
  0.242046   0.835915   0.831500
  0.749997   0.491575   0.177642
  0.025252   0.336252   0.990203
  0.509880   0.663544   0.995919
  0.256452   0.160944   0.172487
