generated by pypospack
   4.98831
  1.411191   0.007105   0.002946
  0.010429   2.057278  -0.000088
  0.004430  -0.000277   2.053825
 Hf Nb Ta Zr
 12 11 5 8
Direct
  0.484452   0.003637   0.998134
  0.267860   0.506068   0.170038
  0.526135   0.664963   0.652759
  0.251743   0.508665   0.837882
  0.239651   0.168174   0.486163
  0.013777   0.331711   0.009355
  0.967274   0.664569   0.020896
  0.269490   0.813539   0.172765
  0.471185  -0.000838   0.671076
  0.770387   0.842870   0.500454
  0.239216   0.811516   0.833471
  0.238843   0.827607   0.493182
  0.268024   0.177850   0.181597
 -0.028292   0.653061   0.662355
  0.527706   0.673624   0.007344
  0.724355   0.830499   0.176689
  0.509423   0.343782   0.345699
  0.993658   0.342030   0.321160
  0.010085   0.333206   0.675196
  0.474407   0.320566   0.000515
  0.240389   0.177791   0.828231
  0.502470   0.994928   0.328037
 -0.000152   0.996690   0.305467
  0.728003   0.494881   0.173652
  0.041777   0.010749   0.674879
  0.525403   0.662808   0.343305
  0.771188   0.496186   0.490733
  0.971748   0.663123   0.321321
  0.011660   0.003384   0.005106
  0.768558   0.165441   0.498903
  0.756999   0.167279   0.830954
  0.727845   0.177751   0.169248
  0.494720   0.334343   0.655483
  0.769865   0.841171   0.821672
  0.231871   0.505847   0.495166
  0.738275   0.490534   0.841113
