generated by pypospack
   4.98831
  1.396802   0.003277  -0.000061
  0.004855   2.070558   0.000719
 -0.000195   0.000659   2.076548
 Nb Zr Ta Hf
 5 10 10 11
Direct
  0.762586   0.845897   0.168304
  0.024135   0.672735   0.684470
  0.257185   0.832616   0.818111
  0.501805   0.349565   0.994202
  0.758236   0.503008   0.841091
  0.499686   0.666085   0.317732
  0.733844   0.155699   0.838077
  0.020179   0.986722  -0.000233
  0.231235   0.169306   0.487964
  0.272309   0.174384   0.840609
  0.007234   0.665372   0.004793
  0.514356   0.339779   0.339314
  0.771671   0.528655   0.513581
  0.485251   0.663919   0.681594
  0.753954   0.832616   0.508874
  0.997945   0.344914   0.992113
  0.984504   0.996767   0.334525
  0.252481   0.478184   0.152705
  0.245491   0.489987   0.837350
  0.231813   0.842230   0.199465
  0.245273   0.827759   0.493347
  0.480915  -0.002687   0.651276
  0.743689   0.483965   0.146016
  0.765021   0.149996   0.498719
  0.496006   0.665091   0.002415
  0.979852   0.327996   0.674192
  0.749204   0.168980   0.157319
  0.246426   0.177144   0.164267
  0.023745   0.002514   0.666765
  0.976462   0.343894   0.331943
  0.233849   0.508476   0.509032
  0.997283   0.660791   0.314074
  0.480706   0.973726   0.015860
  0.508146  -0.001298   0.335642
  0.520980   0.336248   0.658951
  0.746549   0.838975   0.825544
