AuPt
       1.0
  8.276988   0.005186   0.017430
  0.005358   8.094401  -0.003029
  0.018303  -0.002948   8.213696
 Au Pt
 23 9
Direct
  0.001990   0.252119   0.750162
  0.497988   0.501925   0.502420
  0.000812  -0.002188   0.496665
  0.748480   0.752100   0.498109
  0.252662  -0.002066   0.750429
  0.747312   0.249841   0.001534
  0.499460   0.247361   0.250054
  0.747173   0.502117   0.751069
  0.002272   0.503185   0.001399
  0.748465   0.750936   0.001357
  0.003152   0.749281   0.751461
  0.001965   0.502481   0.498883
  0.251771   0.251108   0.000801
  0.498628   0.751122   0.248668
  0.250847   0.502485   0.248151
  0.252081   0.247693   0.499582
  0.746858  -0.002344   0.749169
  0.749210   0.501613   0.248583
  0.000605   0.246971   0.250102
  0.747966   0.246492   0.498449
  0.001766  -0.002051   0.002720
  0.498445   0.250573   0.749952
  0.498317  -0.002522   0.001409
  0.499734  -0.003672   0.498649
  0.495591   0.504673  -0.003926
  0.251108   0.996220   0.248708
  0.252347   0.748949   0.000069
  0.495447   0.748532   0.752997
  0.003289   0.753967   0.246875
  0.749449   0.997577   0.251542
  0.253106   0.503843   0.754298
  0.251700   0.751676   0.499658
