generated by pypospack                  
   4.98831000000000     
     1.3754147219570378   -0.0009094564974045    0.0031585343471121
    -0.0012702222099919    2.0345158786935502    0.0025854306755790
     0.0047230716399994    0.0026317111114541    2.0511858740262392
   Ta   Hf   Zr   Nb
    12     8     7     9
Direct
  0.7680955976577908  0.8392294072509303  0.5006757086791723
  0.2405854266040011  0.4921228078690080  0.1737934896048658
  0.2260018275546197  0.5265995097093471  0.8358407102469220
  0.0073317771729633  0.6726075724912862  0.0074973482612106
  0.2305555161589538  0.8389583344842400  0.1756546019301899
  0.7602510640660617  0.4961227727654740  0.4925273370327216
  0.7702629487861690  0.8372094806692097  0.1716076666340269
  0.9954861636260472  0.9959813332164051  0.0119181674178674
  0.7536190742710088  0.1671971189414507  0.1796556564449275
  0.2386467733902724  0.8322106427668143  0.8280611136571724
  0.7731569789277665  0.5182838570638072  0.8347197747880601
  0.9970977864131197  0.6664694681040556  0.3315140520050238
  0.7418378946391413  0.1639231647876311  0.4944801354266995
  0.7674675764150448  0.8342329846685604  0.8282108961323980
  0.4953809338978076  0.3421618854116600  0.9891301075559064
  0.2449594528000281  0.1732426130923366  0.1779088831401600
  0.0059282379171862  0.3346893643340235  0.6644868499198096
  0.2337698148987422  0.8388509965579667  0.4982901212368204
  0.7443538713573726  0.1475643825476268  0.8238741638363888
  0.5024104756495766  0.6666553189177022  0.6634648842884271
  0.7543576868190820  0.4893455269419132  0.1732713653501355
  0.5008243729666675  0.6676252327861613  0.3364068640371528
  0.2587255264943708  0.1388344968090085  0.8260781922894201
  0.0040069357838153  0.3314257053487362  0.9890807057011750
  0.5047157761105071  0.9922166256868484  0.0146118065364217
  0.4940008351528454  0.3488189292966890  0.6731815782746946
  0.4939164948806120  0.6678320029122573  0.0025424731009771
  0.2368920965782679  0.5033204542468371  0.4929021633962914
  0.5046867672058197  0.9954917099296190  0.3250437818646801
  0.9946712631377497  0.9991799515654388  0.3284965413775957
  0.2539039364484047  0.1614178940054009  0.4907829401676124
  0.0046819940869496  0.0069640821561235  0.6571802368307631
  0.0004513632019169  0.6620897554114511  0.6624921252698648
  0.5018337515898109  0.9757278715807972  0.6575433088599806
  0.0042342943887018  0.3381400393393311  0.3440989366272502
  0.4908897129508036  0.3372567063338383  0.3429683120772112
 
  0.00000000E+00  0.00000000E+00  0.00000000E+00
  0.00000000E+00  0.00000000E+00  0.00000000E+00
  0.00000000E+00  0.00000000E+00  0.00000000E+00
  0.00000000E+00  0.00000000E+00  0.00000000E+00
  0.00000000E+00  0.00000000E+00  0.00000000E+00
  0.00000000E+00  0.00000000E+00  0.00000000E+00
  0.00000000E+00  0.00000000E+00  0.00000000E+00
  0.00000000E+00  0.00000000E+00  0.00000000E+00
  0.00000000E+00  0.00000000E+00  0.00000000E+00
  0.00000000E+00  0.00000000E+00  0.00000000E+00
  0.00000000E+00  0.00000000E+00  0.00000000E+00
  0.00000000E+00  0.00000000E+00  0.00000000E+00
  0.00000000E+00  0.00000000E+00  0.00000000E+00
  0.00000000E+00  0.00000000E+00  0.00000000E+00
  0.00000000E+00  0.00000000E+00  0.00000000E+00
  0.00000000E+00  0.00000000E+00  0.00000000E+00
  0.00000000E+00  0.00000000E+00  0.00000000E+00
  0.00000000E+00  0.00000000E+00  0.00000000E+00
  0.00000000E+00  0.00000000E+00  0.00000000E+00
  0.00000000E+00  0.00000000E+00  0.00000000E+00
  0.00000000E+00  0.00000000E+00  0.00000000E+00
  0.00000000E+00  0.00000000E+00  0.00000000E+00
  0.00000000E+00  0.00000000E+00  0.00000000E+00
  0.00000000E+00  0.00000000E+00  0.00000000E+00
  0.00000000E+00  0.00000000E+00  0.00000000E+00
  0.00000000E+00  0.00000000E+00  0.00000000E+00
  0.00000000E+00  0.00000000E+00  0.00000000E+00
  0.00000000E+00  0.00000000E+00  0.00000000E+00
  0.00000000E+00  0.00000000E+00  0.00000000E+00
  0.00000000E+00  0.00000000E+00  0.00000000E+00
  0.00000000E+00  0.00000000E+00  0.00000000E+00
  0.00000000E+00  0.00000000E+00  0.00000000E+00
  0.00000000E+00  0.00000000E+00  0.00000000E+00
  0.00000000E+00  0.00000000E+00  0.00000000E+00
  0.00000000E+00  0.00000000E+00  0.00000000E+00
  0.00000000E+00  0.00000000E+00  0.00000000E+00
