AuPt                                    
   1.00000000000000     
     8.2769881499051809    0.0051861517148738    0.0174297267766750
     0.0053582883252245    8.0944010765125718   -0.0030287654349847
     0.0183034144963926   -0.0029484172864640    8.2136959245029875
   Pt   Au
     8    24
Direct
  0.4997335728570902 -0.0036721284294982  0.4986492405636316
  0.4955909917649281  0.5046730980572680 -0.0039256507810352
  0.2511084213387570  0.9962195848532923  0.2487080139829524
  0.2523473295490555  0.7489491525303297  0.0000694055512847
  0.4954465860167966  0.7485318753779808  0.7529967285551602
  0.0032891744510318  0.7539672805847636  0.2468749733238367
  0.7494487072608395  0.9975766133081441  0.2515421400727490
  0.2531057367643560  0.5038428717274761  0.7542984431809193
  0.2517001834232366  0.7516763305645966  0.4996583339451310
  0.0019898833795003  0.2521190773406150  0.7501620663570191
  0.4979883063622063  0.5019249155409131  0.5024197869626553
  0.0008119452069156 -0.0021880055549157  0.4966648592843618
  0.7484795962285119  0.7521001357675863  0.4981088790780176
  0.2526621927276502 -0.0020661327895689  0.7504294955210807
  0.7473124084869515  0.2498414793581696  0.0015342405972992
  0.4994604665379778  0.2473612468028106  0.2500541942152875
  0.7471728340380082  0.5021169078844047  0.7510688135151224
  0.0022719718250085  0.5031852657672703  0.0013989740995234
  0.7484651584891463  0.7509358335696420  0.0013568654543791
  0.0031523859344443  0.7492810421405800  0.7514609700564588
  0.0019652987027529  0.5024813921882415  0.4988826430187791
  0.2517713473496349  0.2511079477435321  0.0008013634353359
  0.4986282174688649  0.7511219820493885  0.2486681670788819
  0.2508470100578176  0.5024851220630894  0.2481508950644415
  0.2520807268312183  0.2476927014105985  0.4995815120520712
  0.7468581062544738 -0.0023439749562630  0.7491692901885105
  0.7492098015714211  0.5016132898350842  0.2485827733728668
  0.0006048356688779  0.2469714025169344  0.2501022552250710
  0.7479662935022028  0.2464923340669564  0.4984489734815626
  0.0017662328210696 -0.0020509560728720  0.0027195248975067
  0.4984449741370968  0.2505733797824511  0.7499524264710882
  0.4983173029921627 -0.0025220650290103  0.0014094021780343
 
  0.00000000E+00  0.00000000E+00  0.00000000E+00
  0.00000000E+00  0.00000000E+00  0.00000000E+00
  0.00000000E+00  0.00000000E+00  0.00000000E+00
  0.00000000E+00  0.00000000E+00  0.00000000E+00
  0.00000000E+00  0.00000000E+00  0.00000000E+00
  0.00000000E+00  0.00000000E+00  0.00000000E+00
  0.00000000E+00  0.00000000E+00  0.00000000E+00
  0.00000000E+00  0.00000000E+00  0.00000000E+00
  0.00000000E+00  0.00000000E+00  0.00000000E+00
  0.00000000E+00  0.00000000E+00  0.00000000E+00
  0.00000000E+00  0.00000000E+00  0.00000000E+00
  0.00000000E+00  0.00000000E+00  0.00000000E+00
  0.00000000E+00  0.00000000E+00  0.00000000E+00
  0.00000000E+00  0.00000000E+00  0.00000000E+00
  0.00000000E+00  0.00000000E+00  0.00000000E+00
  0.00000000E+00  0.00000000E+00  0.00000000E+00
  0.00000000E+00  0.00000000E+00  0.00000000E+00
  0.00000000E+00  0.00000000E+00  0.00000000E+00
  0.00000000E+00  0.00000000E+00  0.00000000E+00
  0.00000000E+00  0.00000000E+00  0.00000000E+00
  0.00000000E+00  0.00000000E+00  0.00000000E+00
  0.00000000E+00  0.00000000E+00  0.00000000E+00
  0.00000000E+00  0.00000000E+00  0.00000000E+00
  0.00000000E+00  0.00000000E+00  0.00000000E+00
  0.00000000E+00  0.00000000E+00  0.00000000E+00
  0.00000000E+00  0.00000000E+00  0.00000000E+00
  0.00000000E+00  0.00000000E+00  0.00000000E+00
  0.00000000E+00  0.00000000E+00  0.00000000E+00
  0.00000000E+00  0.00000000E+00  0.00000000E+00
  0.00000000E+00  0.00000000E+00  0.00000000E+00
  0.00000000E+00  0.00000000E+00  0.00000000E+00
  0.00000000E+00  0.00000000E+00  0.00000000E+00
