generated by pypospack
   4.98831
  1.420306   0.003828   0.012650
  0.005768   2.062375  -0.000063
  0.018510  -0.000121   2.066842
 Zr Hf Ta Nb
 12 10 9 5
Direct
  0.720325   0.160889   0.829827
  0.513478   0.336583   0.339924
  0.016844   0.323279   0.674259
  0.256327   0.488627   0.157655
  0.969888   0.338763   0.325893
  0.497926   0.667082   0.334563
  0.214219   0.159643   0.476138
  0.781676   0.516034   0.524416
  0.771107   0.834371   0.511619
  0.259576   0.494298   0.843617
  0.261508   0.163502   0.164496
  0.756908   0.823363   0.829507
  0.491310   0.680967   0.010688
  0.476305   0.998383   0.650647
  0.290656   0.171805   0.853743
 -0.001893  -0.000188   0.998312
  0.023923   0.001574   0.681332
  0.995453   0.666221   0.317593
  0.490248   0.330878   0.643508
  0.975975   0.321009  -0.001360
  0.757108   0.511004   0.835651
  0.464830   0.672777   0.656418
  0.008889   0.677356   0.013002
  0.756539   0.835784   0.161472
  0.972078   0.995834   0.319770
  0.238035   0.845050   0.175771
  0.770503   0.154342   0.501025
  0.222200   0.504227   0.500079
  0.043779   0.675930   0.671558
  0.747187   0.506560   0.149841
  0.224862   0.836669   0.482659
  0.514267   0.994798   0.336604
  0.730908   0.160900   0.164446
  0.246730   0.831659   0.842865
  0.537534   0.337204   0.011086
  0.502776   0.982826   0.011369
