generated by pypospack                  
   4.98831000000000     
     1.3876563878772137   -0.0048214219259039    0.0057837454232535
    -0.0070993034480039    2.0440931928493224   -0.0070923765466300
     0.0083484050754386   -0.0072259013093733    2.0505314001694286
   Ta   Hf   Nb   Zr
     9     9    10     8
Direct
  0.2636399104900821  0.5071946691405236  0.1676561002609888
  0.7313035395954517  0.4948723785658082  0.8364261659986573
  0.7338563335895926  0.4982293944325707  0.1741879736341334
  0.0338559178077133  0.9940391614831016  0.6684284002124214
  0.5072121045210281  0.6651332467723088  0.3376450189335264
  0.7531285170078245  0.5000417076087535  0.4905301193633743
  0.9974362959491029  0.6657081054973407  0.3278976181720692
  0.5265992895224325  0.6567738157961460  0.6563798891209059
  0.4733053917809149  0.0124441508260185  0.9953079804265722
  0.2697078309430847  0.5107576714768948  0.8402562700629963
  0.2279420887186547  0.1703774248645422  0.4857112320783672
 -0.0029644775666887  0.3399983215592862  0.0017754158443275
  0.9753708042184887  0.6625701245148472  0.0105028409179973
  0.2675987518667510  0.8256704229485021  0.1664018655495409
  0.4677112647289589  0.0068688766108614  0.6580469989120780
  0.7563679550183293  0.8361593097054434  0.5007394402469799
 -0.0173445777950938  0.6584378564794907  0.6696685676660971
  0.2722814413564874  0.8180287802804536  0.8380613455208836
  0.5342952082990475  0.6616738775345978  0.0111390378389397
 -0.0004345288837138  0.9779779869243541  0.3284110847927169
  0.4978310465213372  0.9874918048172533  0.3434041014629949
  0.7399111787527137  0.8346465631096422  0.1802795201682328
  0.5056764896242668  0.3478938159508128  0.3317423816711688
  0.9891796485680450  0.3538774218939358  0.3144713773493982
 -0.0040082721263969  0.3427099989849237  0.6817367277185371
  0.2499251078628432  0.8296574347129861  0.4909752752481353
  0.4949467067130813  0.3316743001564662  0.9979639055275779
  0.2434768249275649  0.1745987881563616  0.8317438062881510
  0.2559204446314010  0.1710931106558360  0.1802295044905572
  0.0182754131837310  0.0013956592885874 -0.0008883464169417
  0.7700020352145600  0.1644769337766803  0.4953618617949979
  0.7506176625821726  0.1634521424923702  0.8299534617360271
  0.7335124783566315  0.1651188496761668  0.1709794357086704
  0.4997763022133835  0.3305422538830344  0.6633555741177933
  0.7390841382359200  0.8428565561418013  0.8284607108542559
  0.2449957335702961  0.4955630832812958  0.4950563367268620
 
  0.00000000E+00  0.00000000E+00  0.00000000E+00
  0.00000000E+00  0.00000000E+00  0.00000000E+00
  0.00000000E+00  0.00000000E+00  0.00000000E+00
  0.00000000E+00  0.00000000E+00  0.00000000E+00
  0.00000000E+00  0.00000000E+00  0.00000000E+00
  0.00000000E+00  0.00000000E+00  0.00000000E+00
  0.00000000E+00  0.00000000E+00  0.00000000E+00
  0.00000000E+00  0.00000000E+00  0.00000000E+00
  0.00000000E+00  0.00000000E+00  0.00000000E+00
  0.00000000E+00  0.00000000E+00  0.00000000E+00
  0.00000000E+00  0.00000000E+00  0.00000000E+00
  0.00000000E+00  0.00000000E+00  0.00000000E+00
  0.00000000E+00  0.00000000E+00  0.00000000E+00
  0.00000000E+00  0.00000000E+00  0.00000000E+00
  0.00000000E+00  0.00000000E+00  0.00000000E+00
  0.00000000E+00  0.00000000E+00  0.00000000E+00
  0.00000000E+00  0.00000000E+00  0.00000000E+00
  0.00000000E+00  0.00000000E+00  0.00000000E+00
  0.00000000E+00  0.00000000E+00  0.00000000E+00
  0.00000000E+00  0.00000000E+00  0.00000000E+00
  0.00000000E+00  0.00000000E+00  0.00000000E+00
  0.00000000E+00  0.00000000E+00  0.00000000E+00
  0.00000000E+00  0.00000000E+00  0.00000000E+00
  0.00000000E+00  0.00000000E+00  0.00000000E+00
  0.00000000E+00  0.00000000E+00  0.00000000E+00
  0.00000000E+00  0.00000000E+00  0.00000000E+00
  0.00000000E+00  0.00000000E+00  0.00000000E+00
  0.00000000E+00  0.00000000E+00  0.00000000E+00
  0.00000000E+00  0.00000000E+00  0.00000000E+00
  0.00000000E+00  0.00000000E+00  0.00000000E+00
  0.00000000E+00  0.00000000E+00  0.00000000E+00
  0.00000000E+00  0.00000000E+00  0.00000000E+00
  0.00000000E+00  0.00000000E+00  0.00000000E+00
  0.00000000E+00  0.00000000E+00  0.00000000E+00
  0.00000000E+00  0.00000000E+00  0.00000000E+00
  0.00000000E+00  0.00000000E+00  0.00000000E+00
