generated by pypospack
   4.98831
  1.379566  -0.002856   0.008263
 -0.004171   2.057912  -0.004166
  0.012015  -0.004331   2.033040
 Ta Hf Nb Zr
 9 9 10 8
Direct
  0.261744   0.507792   0.171736
  0.737074   0.497310   0.834812
  0.731610   0.500074   0.170296
  0.034224   0.994161   0.672062
  0.505365   0.666744   0.337960
  0.750428   0.506445   0.493680
  0.990493   0.667496   0.325303
  0.493230   0.651755   0.660706
  0.519648   0.004109  -0.000226
  0.264681   0.504538   0.838921
  0.226681   0.170636   0.485359
  0.008182   0.342190   0.999583
  0.986622   0.660112   0.007327
  0.266607   0.829679   0.166120
  0.471364   0.007931   0.657466
  0.754725   0.829528   0.505427
  0.013083   0.657468   0.671570
  0.274462   0.827351   0.845465
  0.520090   0.658280   0.005368
  0.995835   0.979565   0.326691
  0.498733   0.986939   0.345719
  0.737014   0.832487   0.178615
  0.504508   0.347515   0.334176
  0.986074   0.351946   0.312208
  0.004705   0.346662   0.683453
  0.245612   0.831143   0.490673
  0.489025   0.338679   0.993490
  0.253173   0.166548   0.839072
  0.257407   0.167467   0.174079
 -0.013893   0.998788   0.000836
  0.769763   0.165576   0.497562
  0.755558   0.171234   0.825033
  0.733424   0.171432   0.174206
  0.493113   0.336081   0.665418
  0.739785   0.832261   0.821438
  0.239843   0.492084   0.488395
