generated by pypospack
   4.98831
  1.361001   0.001138   0.000897
  0.001720   2.045848  -0.005721
  0.001367  -0.005682   2.044524
 Zr Hf Nb Ta
 5 10 11 10
Direct
  0.257121   0.146671   0.834574
  0.003629   0.343234   0.983670
  0.500405   0.982891   0.019866
  0.503759   0.336669   0.665230
  0.495280   0.667711   0.005647
  0.746320   0.161223   0.490871
  0.755820   0.834740   0.822158
  0.497902   0.346956   0.993800
  0.243483   0.172578   0.172308
  0.997995   0.333823   0.661584
  0.244555   0.835439   0.504867
  0.745741   0.148145   0.839397
  0.493265   0.666457   0.326883
  0.768084   0.490397   0.178665
  0.754597   0.832913   0.504195
  0.504538   0.999609   0.329313
  0.993472   0.004826   0.332737
  0.252226   0.162398   0.490141
  0.002538   0.014488   0.659407
  0.007199   0.663663   0.333077
  0.003658   0.657595   0.668672
  0.497071   0.007045   0.652044
  0.496478   0.657773   0.666018
  0.999193   0.329690   0.347377
  0.500183   0.333274   0.341031
  0.755686   0.522369   0.826678
  0.233523   0.491393   0.176481
  0.248278   0.503301   0.497377
  0.245809   0.521841   0.823500
  0.006336   0.671261   0.000065
  0.223353   0.836561   0.178257
  0.753608   0.503241   0.491844
  0.775541   0.833995   0.178018
  0.998932   0.985150   0.009693
  0.754253   0.169354   0.170393
  0.240168   0.831330   0.824161
