generated by pypospack
   4.98831
  1.393845   0.001235  -0.006121
  0.001868   2.054919   0.003662
 -0.009131   0.003687   2.041646
 Ta Hf Nb Zr
 13 9 5 9
Direct
  0.499622   0.342507   0.342975
  0.733310   0.831218   0.835756
  0.737845   0.838251   0.155755
  0.998484   0.982564   0.315667
  0.279455   0.486532   0.155043
  0.263665   0.840668   0.150458
  0.515697   0.000601   0.662743
  0.728311   0.492879   0.165009
  0.756913   0.159246   0.480513
  0.503605   0.667683   0.001408
  0.502559   0.668130   0.682195
  0.247848   0.510926   0.514755
  0.998343   0.670293   0.691194
  0.278699   0.166769   0.832216
  0.991489   0.002546   0.995781
  0.979947   0.324372   0.671793
  0.743088   0.167623   0.177634
  0.977336   0.011254   0.683259
  0.013303   0.667155   0.313777
  0.498244   0.986911   0.337279
  0.518598   0.332667   0.650152
  0.980056   0.331069   0.993542
  0.710390   0.161903   0.841605
  0.260759   0.835015   0.834266
  0.517783   0.341001   0.000479
  0.739072   0.510391   0.834799
  0.503070   0.989936   0.997934
  0.009544   0.350925   0.330737
  0.491939   0.666121   0.325499
  0.239215   0.160363   0.495371
  0.997880   0.666029   0.005395
  0.766592   0.519266   0.505497
  0.762822   0.826874   0.508316
  0.255842   0.495548   0.830829
  0.257441   0.168319   0.165181
  0.241218   0.826451   0.515185
