generated by pypospack                  
   4.98831000000000     
     1.4040545510092779    0.0093433049398935    0.0032484037783311
     0.0136757669021918    2.0498241319176511    0.0005047552198368
     0.0048305892228016    0.0003240313965721    2.0580624363465199
   Zr   Hf   Ta   Nb
     8    12     5    11
Direct
  0.7741408809282850  0.8439749007373329  0.4977945946143338
  0.0146378577182264  0.0055957255075236  0.0079988766611601
  0.7692296340918334  0.1648800525886833  0.4979590621219708
  0.7353389920438362  0.1724960009621148  0.1703796790095316
  0.4923555856584401  0.3311102841332085  0.6546521562761018
  0.7721707139191633  0.8418579692598920  0.8241667286304062
  0.2349267387938815  0.5072708691979841  0.4943743568742504
  0.7328849361380895  0.4892634940268397  0.8401436801658165
  0.7579423563258476  0.1678733571555275  0.8308948614338147
  0.4864188779729386  0.0031912022077385  0.9970802305520399
  0.2699841432413748  0.5077206102637944  0.1694587046387337
  0.5265708117006114  0.6682805646820477  0.6526757620840883
  0.2541492683718974  0.5086321856697208  0.8379012150220495
  0.2362954089187880  0.1646956989447672  0.4826861355968999
  0.0126106982934880  0.3330777849795560  0.0082929195828948
  0.9659995958091143  0.6602087728946439  0.0187133927360778
  0.2586485948029046  0.8200640415859199  0.1742951327979084
  0.4742998909464774  0.0005998443340841  0.6707501641884734
  0.2402649299611553  0.8104626607811893  0.8337158549487703
  0.2385053352077349  0.8314613707534869  0.4901491582555029
  0.7244724980226604  0.4939082071076158  0.1741248880830716
  0.0430795644448375  0.0120453303457015  0.6780433565080115
  0.5267235894023030  0.6670637454658123  0.3413734223676035
  0.7664105421068762  0.4952753690897626  0.4912804920312249
  0.9710122406176137  0.6590057082024693  0.3216168987632698
  0.2584744783412651  0.1697703169603603  0.1837858952861583
  0.9725221648220328  0.6520017864418522  0.6617449081232493
  0.5281356909938494  0.6773951968873845  0.0083289466720027
  0.7376047725814295  0.8351666114576524  0.1763764242574620
  0.5071618486708962  0.3413837318572483  0.3455349373515578
  0.9921333159860913  0.3436077110317788  0.3222230754779277
  0.0083061781878349  0.3346256203129805  0.6742967981969390
  0.4734814092560723  0.3167895543570613  0.0013265667268695
  0.2405522275307279  0.1793839728213221  0.8292125039476983
  0.5040064996811568  0.9922722331607976  0.3275060651612395
  0.9985447285102728  0.9975915138341351  0.3091421548548751
 
  0.00000000E+00  0.00000000E+00  0.00000000E+00
  0.00000000E+00  0.00000000E+00  0.00000000E+00
  0.00000000E+00  0.00000000E+00  0.00000000E+00
  0.00000000E+00  0.00000000E+00  0.00000000E+00
  0.00000000E+00  0.00000000E+00  0.00000000E+00
  0.00000000E+00  0.00000000E+00  0.00000000E+00
  0.00000000E+00  0.00000000E+00  0.00000000E+00
  0.00000000E+00  0.00000000E+00  0.00000000E+00
  0.00000000E+00  0.00000000E+00  0.00000000E+00
  0.00000000E+00  0.00000000E+00  0.00000000E+00
  0.00000000E+00  0.00000000E+00  0.00000000E+00
  0.00000000E+00  0.00000000E+00  0.00000000E+00
  0.00000000E+00  0.00000000E+00  0.00000000E+00
  0.00000000E+00  0.00000000E+00  0.00000000E+00
  0.00000000E+00  0.00000000E+00  0.00000000E+00
  0.00000000E+00  0.00000000E+00  0.00000000E+00
  0.00000000E+00  0.00000000E+00  0.00000000E+00
  0.00000000E+00  0.00000000E+00  0.00000000E+00
  0.00000000E+00  0.00000000E+00  0.00000000E+00
  0.00000000E+00  0.00000000E+00  0.00000000E+00
  0.00000000E+00  0.00000000E+00  0.00000000E+00
  0.00000000E+00  0.00000000E+00  0.00000000E+00
  0.00000000E+00  0.00000000E+00  0.00000000E+00
  0.00000000E+00  0.00000000E+00  0.00000000E+00
  0.00000000E+00  0.00000000E+00  0.00000000E+00
  0.00000000E+00  0.00000000E+00  0.00000000E+00
  0.00000000E+00  0.00000000E+00  0.00000000E+00
  0.00000000E+00  0.00000000E+00  0.00000000E+00
  0.00000000E+00  0.00000000E+00  0.00000000E+00
  0.00000000E+00  0.00000000E+00  0.00000000E+00
  0.00000000E+00  0.00000000E+00  0.00000000E+00
  0.00000000E+00  0.00000000E+00  0.00000000E+00
  0.00000000E+00  0.00000000E+00  0.00000000E+00
  0.00000000E+00  0.00000000E+00  0.00000000E+00
  0.00000000E+00  0.00000000E+00  0.00000000E+00
  0.00000000E+00  0.00000000E+00  0.00000000E+00
