generated by pypospack                  
   4.98831000000000     
     1.3899723822807291    0.0032192080588136    0.0018711813414736
     0.0047260605182228    2.0518350870262538    0.0005580643714077
     0.0028751824400955    0.0004610875833043    2.0499158194630906
   Nb   Zr   Ta   Hf
    10    10     8     8
Direct
  0.0079694825531208 -0.0046168037005600 -0.0048010875418925
  0.5092530936195288  0.3324521734156722  0.3330175317964608
  0.2653355112783831  0.4918906147780867  0.8318777102357616
  0.9899202840613522  0.3356619083094749  0.3149502476929270
 -0.0000540936272830  0.3587255426750569  0.6693451386454173
  0.9843020021297850  0.6595445380566446  0.3376032831869843
  0.2284606523503430  0.8243444707860663  0.4912243513588475
  0.2447128000267876  0.8340070395290247  0.8474769424735882
  0.4879483917019367  0.3310234921719121  0.0077407707759387
  0.7584659079554235  0.8432712901433566  0.8367673723894447
  0.7671477277903271  0.1709461351443568  0.5031353249971653
  0.2411558368948992  0.1734090208930516  0.8291799301433064
  0.7571905514927563  0.1679034682260469  0.8266269215763528
  0.2351984765442988  0.1802027013627571  0.5036248856300898
  0.2644212429112865  0.5059926730017852  0.1744387453980392
  0.4968149655171316  0.9966560130964518  0.9950123212816713
  0.7546274469542364  0.1621127381710561  0.1685604191549246
  0.4777601963960382  0.9976691790509308  0.3398788363763414
  0.7274686505750352  0.4834376769162800  0.8325297241785764
  0.4952644864393374  0.6724963249962653  0.6668360793414587
  0.7314659497769137  0.5050151442989197  0.1735210721399002
  0.5103843928466564  0.6709811375124155  0.9915789037007467
  0.2486139817937184  0.1711973122046712  0.1665202643621948
  0.0329552317212403  0.0041746381825207  0.3314428095398780
  0.0234758225641099  0.9775399980660626  0.6741848431111745
  0.7486914146338580  0.4964930732392060  0.4935002949768046
  0.4956628800980158  0.3411020137121357  0.6552399438211900
  0.5133310846652991  0.6684454357905135  0.3453663557425157
  0.0042297329796450  0.3428169026890827  0.0115465870007765
  0.9880754646214989  0.6589298038715926  0.9900322839541844
  0.2451114884654485  0.8215306821280490  0.1665705098920046
  0.4849806978627274  0.9901554069428489  0.6680116583972573
  0.7596323045523475  0.8309345149673321  0.1719439771601621
  0.7739563638036829  0.8414914366584556  0.4919682077442962
  0.2447812473761586  0.4961558381766747  0.4898971385422205
  0.0012993286739765  0.6659084645358131  0.6736527008233039
 
  0.00000000E+00  0.00000000E+00  0.00000000E+00
  0.00000000E+00  0.00000000E+00  0.00000000E+00
  0.00000000E+00  0.00000000E+00  0.00000000E+00
  0.00000000E+00  0.00000000E+00  0.00000000E+00
  0.00000000E+00  0.00000000E+00  0.00000000E+00
  0.00000000E+00  0.00000000E+00  0.00000000E+00
  0.00000000E+00  0.00000000E+00  0.00000000E+00
  0.00000000E+00  0.00000000E+00  0.00000000E+00
  0.00000000E+00  0.00000000E+00  0.00000000E+00
  0.00000000E+00  0.00000000E+00  0.00000000E+00
  0.00000000E+00  0.00000000E+00  0.00000000E+00
  0.00000000E+00  0.00000000E+00  0.00000000E+00
  0.00000000E+00  0.00000000E+00  0.00000000E+00
  0.00000000E+00  0.00000000E+00  0.00000000E+00
  0.00000000E+00  0.00000000E+00  0.00000000E+00
  0.00000000E+00  0.00000000E+00  0.00000000E+00
  0.00000000E+00  0.00000000E+00  0.00000000E+00
  0.00000000E+00  0.00000000E+00  0.00000000E+00
  0.00000000E+00  0.00000000E+00  0.00000000E+00
  0.00000000E+00  0.00000000E+00  0.00000000E+00
  0.00000000E+00  0.00000000E+00  0.00000000E+00
  0.00000000E+00  0.00000000E+00  0.00000000E+00
  0.00000000E+00  0.00000000E+00  0.00000000E+00
  0.00000000E+00  0.00000000E+00  0.00000000E+00
  0.00000000E+00  0.00000000E+00  0.00000000E+00
  0.00000000E+00  0.00000000E+00  0.00000000E+00
  0.00000000E+00  0.00000000E+00  0.00000000E+00
  0.00000000E+00  0.00000000E+00  0.00000000E+00
  0.00000000E+00  0.00000000E+00  0.00000000E+00
  0.00000000E+00  0.00000000E+00  0.00000000E+00
  0.00000000E+00  0.00000000E+00  0.00000000E+00
  0.00000000E+00  0.00000000E+00  0.00000000E+00
  0.00000000E+00  0.00000000E+00  0.00000000E+00
  0.00000000E+00  0.00000000E+00  0.00000000E+00
  0.00000000E+00  0.00000000E+00  0.00000000E+00
  0.00000000E+00  0.00000000E+00  0.00000000E+00
