generated by pypospack
   4.98831
  1.401125   0.004593   0.005063
  0.006760   2.062881   0.000820
  0.007179   0.000772   2.070524
 Zr Nb Ta Hf
 12 4 10 10
Direct
  0.714361   0.165858   0.837765
  0.513214   0.344778   0.340586
  0.002485   0.314328   0.668412
  0.257665   0.494166   0.150206
  0.978643   0.333237   0.328944
  0.494494   0.662605   0.334285
  0.251548   0.153476   0.478742
  0.786424   0.518535   0.522574
  0.760463   0.839363   0.501873
  0.255068   0.496613   0.841528
  0.262359   0.163063   0.167633
  0.751996   0.820063   0.831623
  0.732415   0.151635   0.174192
  0.254202   0.830245   0.849719
  0.534798   0.340024   0.013178
  0.499805   0.986077   0.004137
  0.500708   0.674626   0.008614
  0.005511   0.679008   0.012422
  0.740371   0.834060   0.162562
  0.988780   0.994174   0.319980
  0.258566   0.838178   0.164785
  0.744447   0.145994   0.486723
  0.217125   0.504581   0.505386
  0.043439   0.683335   0.671166
  0.745130   0.513355   0.150936
  0.236905   0.843418   0.483350
  0.506542   0.990848   0.328475
  0.477934   0.993128   0.664195
  0.281063   0.176764   0.852379
  0.995712   0.999246   0.002747
  0.010709   0.004405   0.674520
  0.004002   0.670600   0.318526
  0.497055   0.336926   0.645971
  0.971777   0.320111   0.006658
  0.757003   0.511351   0.837225
  0.467265   0.671830   0.657975
