generated by pypospack
   4.98831
  1.405975   0.001803   0.010995
  0.002758   2.058485   0.000908
  0.015844   0.000836   2.067207
 Nb Ta Hf Zr
 4 10 10 12
Direct
  0.743740   0.158961   0.166296
  0.260597   0.827311   0.839749
  0.540490   0.336198   0.013643
  0.505171   0.988174   0.014320
  0.006192   0.674509   0.008494
  0.749632   0.829076   0.156576
  0.979209   0.986433   0.316345
  0.249511   0.835441   0.162228
  0.774260   0.151273   0.495037
  0.496690   0.675411   0.010064
  0.240522   0.516300   0.511141
  0.029414   0.677587   0.672957
  0.741737   0.512052   0.150139
  0.236777   0.827634   0.497832
  0.475000   0.004334   0.650103
  0.288066   0.173170   0.855159
  0.001070   0.995789   0.997431
  0.020842   0.997743   0.680904
  0.000876   0.666297   0.324683
  0.510486   0.994188   0.331416
  0.486389   0.322686   0.643303
  0.977968   0.328515   0.997284
  0.745593   0.512088   0.834797
  0.466698   0.678480   0.661895
  0.723246   0.163220   0.832550
  0.513990   0.334255   0.339119
  0.014064   0.328021   0.671347
  0.263378   0.493700   0.154319
  0.975354   0.346269   0.329434
  0.496831   0.666049   0.335095
  0.208052   0.156863   0.472135
  0.756393   0.517474   0.527901
  0.758634   0.834197   0.510546
  0.264521   0.500413   0.837279
  0.256702   0.163407   0.164466
  0.741888   0.826484   0.834007
