generated by pypospack                  
   4.98831000000000     
     1.4115232293770825    0.0017750810952569   -0.0037750920882364
     0.0027254073443100    2.0516715314702338    0.0004528963194471
    -0.0056253106765066    0.0004366894138234    2.0807614553968619
   Ta   Hf   Nb   Zr
     8     9     6    13
Direct
  0.7323739147736289  0.8309416082438780  0.1551467734194935
  0.9757126924704356  0.9899304366299460  0.3093359852691733
  0.2571791966036769  0.8516580376533257  0.1651710101626554
  0.7933443015318208  0.1538041607399947  0.4877921148580521
  0.4816178043654316  0.6773612080522762  0.0012220572169446
  0.4845338080007577  0.6586483846139698  0.6727842034903807
  0.2449695863862902  0.5136100956855918  0.5206024729088921
  0.0129902261791210  0.6661548719914470  0.6856985784049234
  0.7284274861675004  0.5086844054408349  0.1601634132350911
  0.2763056874875103  0.1708617536245447  0.8443596866684060
  0.9909628005605950  0.9992330188525922  0.9989263792453175
  0.9925891944793964  0.9984336498154198  0.6932411968404502
  0.0170319913166847  0.6692425694161562  0.3163484591538838
  0.5209604473008027  0.0000499191800820  0.3310758364946292
  0.5143696005383859  0.3341351275373419  0.6592730803244391
  0.9709460873642441  0.3261170010612010  0.9921055121095063
  0.7228126640568753  0.8235541548662929  0.8348466898386147
  0.7451352659768155  0.1643812004401119  0.1647359543820604
  0.7214245998787601  0.1611479950464378  0.8411798049375997
  0.2664534116703167  0.8299720456768908  0.8342867544533608
  0.5401701452836587  0.3263858978515695  0.9934269663673264
  0.7395140235772090  0.5116462923512305  0.8334134924654444
  0.5032314617441213  0.9950634587202540  0.0074807640162848
  0.5151776219757097  0.3248406884421047  0.3506378271833936
  0.9886093789348576  0.3345151466446467  0.6707067053585453
  0.5120628014137062  0.0140911768116820  0.6533655060732301
  0.2752756022223473  0.4818648046409574  0.1498010742659412
  0.0009453207500170  0.3455584727630763  0.3318213513129469
  0.4774533193080756  0.6731828659648929  0.3303172024044796
  0.2142922810790680  0.1519739306275198  0.4939356714812271
  0.0074693213723274  0.6718772420122808  0.0018266683324642
  0.7596172387581105  0.5259251395616212  0.5070124369696396
  0.7617020232417032  0.8261009301827763  0.5067652570692043
  0.2597896817910983  0.4927101138413419  0.8358980319815598
  0.2582723385025409  0.1646900074199859  0.1610362988684598
  0.2362636729363968  0.8316581875957240  0.5042587824359944
 
  0.00000000E+00  0.00000000E+00  0.00000000E+00
  0.00000000E+00  0.00000000E+00  0.00000000E+00
  0.00000000E+00  0.00000000E+00  0.00000000E+00
  0.00000000E+00  0.00000000E+00  0.00000000E+00
  0.00000000E+00  0.00000000E+00  0.00000000E+00
  0.00000000E+00  0.00000000E+00  0.00000000E+00
  0.00000000E+00  0.00000000E+00  0.00000000E+00
  0.00000000E+00  0.00000000E+00  0.00000000E+00
  0.00000000E+00  0.00000000E+00  0.00000000E+00
  0.00000000E+00  0.00000000E+00  0.00000000E+00
  0.00000000E+00  0.00000000E+00  0.00000000E+00
  0.00000000E+00  0.00000000E+00  0.00000000E+00
  0.00000000E+00  0.00000000E+00  0.00000000E+00
  0.00000000E+00  0.00000000E+00  0.00000000E+00
  0.00000000E+00  0.00000000E+00  0.00000000E+00
  0.00000000E+00  0.00000000E+00  0.00000000E+00
  0.00000000E+00  0.00000000E+00  0.00000000E+00
  0.00000000E+00  0.00000000E+00  0.00000000E+00
  0.00000000E+00  0.00000000E+00  0.00000000E+00
  0.00000000E+00  0.00000000E+00  0.00000000E+00
  0.00000000E+00  0.00000000E+00  0.00000000E+00
  0.00000000E+00  0.00000000E+00  0.00000000E+00
  0.00000000E+00  0.00000000E+00  0.00000000E+00
  0.00000000E+00  0.00000000E+00  0.00000000E+00
  0.00000000E+00  0.00000000E+00  0.00000000E+00
  0.00000000E+00  0.00000000E+00  0.00000000E+00
  0.00000000E+00  0.00000000E+00  0.00000000E+00
  0.00000000E+00  0.00000000E+00  0.00000000E+00
  0.00000000E+00  0.00000000E+00  0.00000000E+00
  0.00000000E+00  0.00000000E+00  0.00000000E+00
  0.00000000E+00  0.00000000E+00  0.00000000E+00
  0.00000000E+00  0.00000000E+00  0.00000000E+00
  0.00000000E+00  0.00000000E+00  0.00000000E+00
  0.00000000E+00  0.00000000E+00  0.00000000E+00
  0.00000000E+00  0.00000000E+00  0.00000000E+00
  0.00000000E+00  0.00000000E+00  0.00000000E+00
