generated by pypospack
   4.98831
  1.376135  -0.001071   0.002823
 -0.001510   2.035325   0.002541
  0.004226   0.002587   2.050859
 Ta Hf Zr Nb
 12 8 7 9
Direct
  0.767594   0.840332   0.500749
  0.241326   0.491831   0.177440
  0.226775   0.526582   0.833383
  0.008977   0.672335   0.007539
  0.230960   0.839230   0.175414
  0.763244   0.495781   0.492735
  0.770229   0.837544   0.170898
  0.995893   0.995784   0.011868
  0.753952   0.167222   0.179419
  0.238713   0.832268   0.828021
  0.773329   0.518706   0.836126
  0.995306   0.667089   0.331000
  0.741453   0.163293   0.494521
  0.767497   0.834327   0.828793
  0.494370   0.342478   0.989369
  0.244346   0.172548   0.177347
  0.005247   0.334000   0.665315
  0.234362   0.836819   0.498626
  0.743375   0.147116   0.824181
  0.503167   0.666530   0.663375
  0.753662   0.489037   0.172242
  0.503539   0.668133   0.336816
  0.259426   0.139175   0.826392
  0.004895   0.332280   0.988999
  0.504289   0.991800   0.014680
  0.495106   0.349059   0.672946
  0.492885   0.667418   0.002492
  0.232739   0.504407   0.491220
  0.504023   0.995642   0.325111
  0.995114  -0.001099   0.328844
  0.253923   0.163116   0.490499
  0.005152   0.007213   0.656917
 -0.000331   0.662586   0.663348
  0.501580   0.975582   0.657566
  0.002549   0.336955   0.343075
  0.491326   0.336881   0.342727
