generated by pypospack
   4.98831
  1.399418  -0.000721   0.009339
 -0.001083   2.054223   0.002789
  0.013701   0.002580   2.049360
 Nb Hf Zr Ta
 10 9 10 7
Direct
  0.992439   0.981327   0.322908
  0.497357   0.986589   0.344066
  0.742433   0.832207   0.181928
  0.514181   0.346101   0.345154
  0.266942   0.503538   0.839933
  0.976092   0.354452   0.321817
  0.017807   0.341982   0.679712
  0.250525   0.833182   0.487711
  0.483252   0.330390   0.991347
  0.234315   0.171392   0.830280
  0.224726   0.168671   0.486793
  0.265813   0.505987   0.167950
  0.007252   0.338169  -0.001447
  0.976093   0.662790   0.006278
  0.261168   0.823303   0.169121
  0.467687   0.005637   0.659180
  0.754843   0.833114   0.505245
  0.027914   0.665300   0.663411
  0.273802   0.816952   0.847106
  0.248721   0.172339   0.184382
  0.995866  -0.000006   0.004576
  0.766575   0.162718   0.499670
  0.762446   0.169038   0.821807
  0.500869   0.009774   0.999641
  0.732088   0.176512   0.176428
  0.739729   0.496199   0.825258
  0.483696   0.328062   0.662655
  0.744372   0.833912   0.816756
  0.245255   0.494316   0.485570
  0.732866   0.497832   0.173663
  0.538640   0.665143   0.011450
  0.035646   0.991179   0.671634
  0.517697   0.668918   0.336394
  0.751340   0.507422   0.496792
  0.984024   0.667048   0.330182
  0.485528   0.658521   0.654646
