generated by pypospack                  
   4.98831000000000     
     1.4048576337507788    0.0096192280844733    0.0035220449664475
     0.0140849468670841    2.0501326633409049    0.0001098231185503
     0.0052363545083262   -0.0000739914909838    2.0587173414238547
   Zr   Nb   Ta   Hf
     9    11     5    11
Direct
  0.7744359611822137  0.8439670602682962  0.4979603510482232
  0.0146667472115395  0.0060112953927708  0.0078422985457635
  0.7699274200593386  0.1650315918834154  0.4962898280776222
  0.7567613845581215  0.1676985810695320  0.8309484538540082
  0.7349501380019550  0.1727334697716512  0.1718252291122876
  0.4926200263681693  0.3315027117697341  0.6543915476067744
  0.7721210159829982  0.8403350173084186  0.8241753879402488
  0.2345273900513747  0.5069414071417289  0.4945359889119889
  0.7335920701276381  0.4907179626222247  0.8403117254604056
  0.2584498694523909  0.1697257337825459  0.1833818142017550
  0.9728740445235474  0.6520423095342255  0.6618392262351968
  0.5278277441407829  0.6778988879400327  0.0083390237593765
  0.7370901310360310  0.8351691782986458  0.1764882890561691
  0.5069534071437910  0.3414689948315605  0.3456112033454727
  0.9924965327070194  0.3437257436919177  0.3219145665373490
  0.0089851753326597  0.3345001703418085  0.6740272135920629
  0.4736118888006751  0.3173139630203526  0.0014198033378437
  0.2422461974807783  0.1793827248554244  0.8292418177507769
  0.5034932134008363  0.9924284040220445  0.3274616051545312
  0.9983933120775842  0.9974344545968301  0.3090578851118908
  0.7242901646410462  0.4939279759671983  0.1740353587974308
  0.0438079079309305  0.0116123365279319  0.6778175366124449
  0.5266554947925807  0.6668356101233316  0.3416053645235045
  0.7666450886745582  0.4952057858150489  0.4912846257553528
  0.9704941533509268  0.6588209976703414  0.3214101696603650
  0.4860343041729505  0.0025533155143509  0.9981311833584284
  0.2703516123691485  0.5077613872557750  0.1692221260687555
  0.5259044722426602  0.6681950857034417  0.6523510456956668
  0.2540118463157805  0.5083669541925746  0.8380244140408913
  0.2360237248039450  0.1649128936962442  0.4830276741318048
  0.0128828408876396  0.3332265194252599  0.0087185365290008
  0.9664767692927712  0.6604097960151164  0.0191393807101183
  0.2584409256245607  0.8202001504018287  0.1747749426041335
  0.4742556826182469  0.9998261047416108  0.6696727327487834
  0.2400506261878022  0.8109210641371044  0.8337487135377953
  0.2376487164549991  0.8311993606696760  0.4899729365857698
 
  0.00000000E+00  0.00000000E+00  0.00000000E+00
  0.00000000E+00  0.00000000E+00  0.00000000E+00
  0.00000000E+00  0.00000000E+00  0.00000000E+00
  0.00000000E+00  0.00000000E+00  0.00000000E+00
  0.00000000E+00  0.00000000E+00  0.00000000E+00
  0.00000000E+00  0.00000000E+00  0.00000000E+00
  0.00000000E+00  0.00000000E+00  0.00000000E+00
  0.00000000E+00  0.00000000E+00  0.00000000E+00
  0.00000000E+00  0.00000000E+00  0.00000000E+00
  0.00000000E+00  0.00000000E+00  0.00000000E+00
  0.00000000E+00  0.00000000E+00  0.00000000E+00
  0.00000000E+00  0.00000000E+00  0.00000000E+00
  0.00000000E+00  0.00000000E+00  0.00000000E+00
  0.00000000E+00  0.00000000E+00  0.00000000E+00
  0.00000000E+00  0.00000000E+00  0.00000000E+00
  0.00000000E+00  0.00000000E+00  0.00000000E+00
  0.00000000E+00  0.00000000E+00  0.00000000E+00
  0.00000000E+00  0.00000000E+00  0.00000000E+00
  0.00000000E+00  0.00000000E+00  0.00000000E+00
  0.00000000E+00  0.00000000E+00  0.00000000E+00
  0.00000000E+00  0.00000000E+00  0.00000000E+00
  0.00000000E+00  0.00000000E+00  0.00000000E+00
  0.00000000E+00  0.00000000E+00  0.00000000E+00
  0.00000000E+00  0.00000000E+00  0.00000000E+00
  0.00000000E+00  0.00000000E+00  0.00000000E+00
  0.00000000E+00  0.00000000E+00  0.00000000E+00
  0.00000000E+00  0.00000000E+00  0.00000000E+00
  0.00000000E+00  0.00000000E+00  0.00000000E+00
  0.00000000E+00  0.00000000E+00  0.00000000E+00
  0.00000000E+00  0.00000000E+00  0.00000000E+00
  0.00000000E+00  0.00000000E+00  0.00000000E+00
  0.00000000E+00  0.00000000E+00  0.00000000E+00
  0.00000000E+00  0.00000000E+00  0.00000000E+00
  0.00000000E+00  0.00000000E+00  0.00000000E+00
  0.00000000E+00  0.00000000E+00  0.00000000E+00
  0.00000000E+00  0.00000000E+00  0.00000000E+00
