generated by pypospack
   4.98831
  1.380841   0.001260  -0.000043
  0.001939   2.056263   0.002435
 -0.000011   0.002363   2.049097
 Hf Nb Zr Ta
 9 8 8 11
Direct
  0.254895   0.166009   0.825169
  0.245593   0.499736   0.165834
  0.014760   0.679308   0.345621
  0.505532   0.003628   0.011424
  0.746626   0.167597   0.504726
  0.512104   0.325800   0.001038
  0.743133   0.488326   0.498860
  0.489202   0.685032   0.342102
  0.489795   0.664636   0.665041
  0.003102   0.001860   0.668223
  0.260995   0.486277   0.495027
  0.003408   0.664020   0.988545
  0.751652   0.180236   0.195176
  0.498586   0.998019   0.668430
  0.742085   0.167379   0.812598
  0.763374   0.809520   0.156502
  0.253212   0.165513   0.506287
  0.988085   0.005761   0.008534
  0.003090   0.996210   0.328548
  0.982913   0.323829   0.998297
  0.014200   0.663376   0.658766
  0.496864   0.995849   0.325632
  0.752683   0.506097   0.174382
  0.497621   0.661581   0.983522
  0.757697   0.834669   0.825936
  0.245081   0.182446   0.176382
  0.018030   0.327616   0.340653
  0.007131   0.338355   0.665970
  0.236907   0.484604   0.832392
  0.252073   0.857379   0.518337
  0.481475   0.324586   0.332841
  0.763506   0.492708   0.816019
  0.750357   0.850420   0.516444
  0.244106   0.844655   0.835104
  0.236969   0.816178   0.141902
  0.493148   0.340791   0.669733
