generated by pypospack
   4.98831
  1.399456   0.003706  -0.001863
  0.005436   2.050912   0.004870
 -0.002746   0.004732   2.054939
 Ta Nb Hf Zr
 6 11 9 10
Direct
  0.235390   0.171717   0.833036
  0.732543   0.496896   0.177241
  0.532279   0.668121   0.012477
  0.044156   0.005076   0.661017
  0.514508   0.670390   0.339336
  0.765463   0.498398   0.488471
  0.005227   0.994003   0.331637
  0.491902   0.989344   0.345793
  0.743332   0.830192   0.186541
  0.234650   0.169794   0.489825
  0.504636   0.338657   0.349943
  0.265692   0.498553   0.845167
  0.985155   0.337357   0.325102
  0.017298   0.339379   0.669050
  0.984543   0.669753   0.326882
  0.241986   0.833877   0.483851
  0.478618   0.335453   0.988479
  0.260428   0.504733   0.170843
  0.004807   0.336802   0.003301
  0.970585   0.661438   0.007655
  0.257937   0.828176   0.169012
  0.467701   0.002518   0.661140
  0.765299   0.839070   0.503024
  0.231896   0.496591   0.476235
  0.024028   0.652585   0.668275
  0.251762   0.824674   0.851994
  0.260729   0.166064   0.175542
  0.983076   0.005436   0.011272
  0.762227   0.163452   0.501341
  0.764433   0.170746   0.820146
  0.518564   0.997143   0.995072
  0.723830   0.178939   0.177189
  0.737162   0.491237   0.830835
  0.489491   0.663442   0.651679
  0.482758   0.331607   0.659033
  0.765914   0.838389   0.812558
