AuPt                                    
   1.00000000000000     
     8.0546124390680500    0.0110890837790954   -0.0162238105627457
     0.0114144725572272    8.0163897813717497   -0.0078437526392694
    -0.0165586690972518   -0.0077162924800641    8.0724826674142953
   Pt   Au
    21    11
Direct
  0.0027158609455367  0.7497750193151166  0.7529782341786806
  0.0034265939878487  0.4981272779237985  0.4971297148476960
  0.2515831010404372  0.2497191159619865  0.0017032381142204
  0.4988314606345088  0.7516543243999165  0.2447751070660652
  0.2476365793733886  0.5007953829533208  0.2487013756794929
  0.2513081523024987  0.2519457211866855  0.4967175278783971
  0.7452030931065950 -0.0002479990662676  0.7507883144837497
  0.7542500792446697  0.5005644427675103  0.2537495054840794
  0.0014766900832979  0.2494178102490473  0.2528839976824844
  0.7505156275300999  0.2484140727374650  0.4984642007390145
  0.0009642147088113 -0.0020436005034269  0.0046624069456570
  0.4976584897680868  0.2482201205665632  0.7493427828885953
  0.4984060373670458 -0.0012108284671512  0.0007046540530080
  0.5033365997166817  0.0029431110246170  0.4994806102026941
  0.4919594980941511  0.5017964838898420 -0.0007616171406117
  0.2503100199359741  0.0011400734125573  0.2453859515450837
  0.2500898550993449  0.7499019312075562  0.0018225146021454
  0.4964321596672880  0.7522420553155488  0.7542160631806843
  0.0017194749880027  0.7502562247289098  0.2482867077260664
  0.7505689156335557  0.9975963958708496  0.2493799400901707
  0.2515446499926605  0.4990351893772204  0.7512203963580945
  0.2513848991118770  0.7507142794892764  0.4984838382271058
  0.0000773744500502  0.2488611088037485  0.7494479488803625
  0.4994412665296643  0.5013123890831036  0.4995064597373380
 -0.0005736076578552 -0.0003962373844380  0.4992345908997671
  0.7502540887149338  0.7505814567332100  0.5008916831148323
  0.2506028419832804  0.0014446882981738  0.7509869869433256
  0.7482713265229999  0.2490629766541462  0.0012126870704779
  0.5012475399859222  0.2508688150469164  0.2493107988585108
  0.7484309576596524  0.4993454205041047  0.7485678178937275
  0.0016246424877525  0.4987923542811874  0.0005991784326511
  0.7492995169912444  0.7493694236388920  0.0001263833364190
 
  0.00000000E+00  0.00000000E+00  0.00000000E+00
  0.00000000E+00  0.00000000E+00  0.00000000E+00
  0.00000000E+00  0.00000000E+00  0.00000000E+00
  0.00000000E+00  0.00000000E+00  0.00000000E+00
  0.00000000E+00  0.00000000E+00  0.00000000E+00
  0.00000000E+00  0.00000000E+00  0.00000000E+00
  0.00000000E+00  0.00000000E+00  0.00000000E+00
  0.00000000E+00  0.00000000E+00  0.00000000E+00
  0.00000000E+00  0.00000000E+00  0.00000000E+00
  0.00000000E+00  0.00000000E+00  0.00000000E+00
  0.00000000E+00  0.00000000E+00  0.00000000E+00
  0.00000000E+00  0.00000000E+00  0.00000000E+00
  0.00000000E+00  0.00000000E+00  0.00000000E+00
  0.00000000E+00  0.00000000E+00  0.00000000E+00
  0.00000000E+00  0.00000000E+00  0.00000000E+00
  0.00000000E+00  0.00000000E+00  0.00000000E+00
  0.00000000E+00  0.00000000E+00  0.00000000E+00
  0.00000000E+00  0.00000000E+00  0.00000000E+00
  0.00000000E+00  0.00000000E+00  0.00000000E+00
  0.00000000E+00  0.00000000E+00  0.00000000E+00
  0.00000000E+00  0.00000000E+00  0.00000000E+00
  0.00000000E+00  0.00000000E+00  0.00000000E+00
  0.00000000E+00  0.00000000E+00  0.00000000E+00
  0.00000000E+00  0.00000000E+00  0.00000000E+00
  0.00000000E+00  0.00000000E+00  0.00000000E+00
  0.00000000E+00  0.00000000E+00  0.00000000E+00
  0.00000000E+00  0.00000000E+00  0.00000000E+00
  0.00000000E+00  0.00000000E+00  0.00000000E+00
  0.00000000E+00  0.00000000E+00  0.00000000E+00
  0.00000000E+00  0.00000000E+00  0.00000000E+00
  0.00000000E+00  0.00000000E+00  0.00000000E+00
  0.00000000E+00  0.00000000E+00  0.00000000E+00
