AuPt
       1.0
  8.066328   0.001584  -0.000082
  0.001566   8.184598  -0.019139
 -0.000085  -0.019121   8.169370
 Pt Au
 21 11
Direct
  0.997610   0.748773   0.749318
  0.000136   0.499284   0.498862
  0.248134   0.253500   0.001540
  0.496689   0.744098   0.248638
  0.248810   0.500122   0.246995
  0.246426   0.250758   0.499036
  0.749323   0.007523   0.752428
  0.752807   0.500005   0.243270
  0.005675   0.254281   0.246238
  0.751924   0.252542   0.501122
  0.001325   0.001953   0.000710
  0.499871   0.253277   0.756286
  0.498568   0.002335   0.001493
  0.498494   0.001184   0.499520
  0.501692   0.495949   0.002084
  0.247069   0.998332   0.252114
  0.250282   0.747234   0.001166
  0.501948   0.749199   0.749019
  0.003323   0.744878   0.248799
  0.752408  -0.000233   0.248857
  0.250224   0.498236   0.750468
  0.250041   0.749716   0.492414
  0.999632   0.253175   0.755238
  0.499679   0.498421   0.498715
  0.000470   0.001312   0.499286
  0.749509   0.747900   0.498549
  0.249919   0.003571   0.747740
  0.752601   0.253205   0.999074
  0.497567   0.251315   0.248893
  0.749485   0.493584   0.758900
  0.998665   0.495532   0.002442
  0.749692   0.749038   0.000786
