generated by pypospack
   4.98831
  1.363656   0.001149  -0.000030
  0.001747   2.045675  -0.001798
 -0.000019  -0.001764   2.043478
 Ta Zr Nb Hf
 12 7 9 8
Direct
  0.755673   0.837098   0.503133
  0.239038   0.489850   0.179608
  0.246001   0.507794   0.496839
  0.242924   0.526629   0.825980
  0.008439   0.670710   0.001622
  0.227704   0.838209   0.174885
  0.753402   0.501998   0.497115
  0.772430   0.836418   0.172321
  0.995109   0.987632   0.010552
  0.753440   0.167703   0.178923
  0.244204   0.831054   0.824707
  0.759925   0.523552   0.827224
  0.764097   0.487792   0.176016
  0.502925   0.669422   0.329492
  0.244115   0.141370   0.829891
  0.005833   0.341030   0.985490
  0.503211   0.994025   0.014819
  0.497065   0.342338   0.672888
  0.494800   0.665389   0.006051
  0.502920   0.994490   0.326660
  0.995043   0.997780   0.330876
  0.253189   0.161174   0.491818
  0.004026   0.000278   0.656542
  0.997766   0.667558   0.333328
  0.000467   0.662630   0.663570
  0.496192   0.992295   0.654839
  0.005531   0.335570   0.348931
  0.493178   0.337494   0.343017
  0.744007   0.162638   0.492451
  0.754377   0.831417   0.824012
  0.497301   0.340603   0.993340
  0.242556   0.172781   0.175889
  0.004394   0.338923   0.664667
  0.243579   0.833297   0.501203
  0.755056   0.147577   0.828410
  0.500080   0.663484   0.662886
