generated by pypospack
   4.98831
  1.381794  -0.000434   0.000129
 -0.000554   2.039699  -0.001534
  0.000197  -0.001573   2.051715
 Nb Zr Ta Hf
 7 7 13 9
Direct
  0.238964   0.503641   0.494646
  0.504172   0.985160   0.325718
  0.995837   0.993390   0.331592
  0.007091   0.019231   0.662073
  0.985638   0.658498   0.657578
  0.014492   0.342352   0.348009
  0.483627   0.345681   0.348384
  0.753761   0.166585   0.170752
  0.239552   0.832510   0.824379
  0.753599   0.488529   0.171455
  0.500226   0.668975   0.335224
  0.021130   0.333758   0.984316
  0.494408   0.340545   0.671784
  0.497699   0.665629   0.002248
  0.763007   0.842377   0.501092
  0.238927   0.494342   0.173416
  0.223910   0.526129   0.829315
  0.997591   0.665568   0.008526
  0.222960   0.834699   0.176905
  0.758644   0.493561   0.491860
  0.775544   0.833670   0.169788
  0.017016   0.996094   0.007911
  0.769868   0.514145   0.835071
  0.994925   0.665519   0.333079
  0.258734   0.159409   0.493757
  0.260168   0.144993   0.825851
  0.499042   0.999084   0.659990
  0.488506   0.987430   0.016198
  0.741941   0.164580   0.491743
  0.763527   0.836441   0.828855
  0.480859   0.342499   0.982364
  0.250513   0.171575   0.181985
  0.008321   0.330000   0.666061
  0.236462   0.841399   0.500795
  0.748155   0.150090   0.836918
  0.511180   0.661914   0.660359
