generated by pypospack                  
   4.98831000000000     
     1.3801129308830633    0.0011796705421463   -0.0009776692469500
     0.0018183696646516    2.0554510185902726    0.0029261452478838
    -0.0013983551625575    0.0028514812576191    2.0501283237147709
   Ta   Hf   Zr   Nb
    11     9     8     8
Direct
  0.2533328827240512  0.1650291236832243  0.5084343275447191
  0.0187671742727598  0.3262427724546622  0.3388957163033306
  0.0068147545034170  0.3383810447478450  0.6659282947041664
  0.2335877969816879  0.4851021520382711  0.8341078304683476
  0.2546139829441359  0.8599648574637075  0.5169277028623466
  0.4803763181183305  0.3240914730893838  0.3347218449138334
  0.7663787327271212  0.4929361907555161  0.8170638866817345
  0.7487691422971533  0.8491259556800956  0.5163201928476520
  0.2437284778291708  0.8442884821722858  0.8347145639417454
  0.2374691303681123  0.8149026898927247  0.1431703335231923
  0.4932548999502920  0.3424208521894457  0.6716856816556276
  0.2536066044349451  0.1646320125812657  0.8215238238632695
  0.2459755729798979  0.5034690392853101  0.1654700109823203
  0.0141065195437639  0.6799652107911589  0.3456040070101236
  0.5039422243958659  0.0033335326953282  0.0108582511983834
  0.7473288565181312  0.1678662444985781  0.5053039762309063
  0.5089459434358782  0.3265617237417081  0.9976949773704114
  0.7446036660463908  0.4894639845590897  0.4980082648409738
  0.4894885907514931  0.6850357109830376  0.3419186084795670
  0.4889366201326057  0.6621369112233332  0.6646828394889965
  0.9896983951407107  0.0057978370512692  0.0088748527974593
  0.0020880861133040  0.9968601391915558  0.3283647941961718
  0.9864385403443846  0.3229825676026839  0.0007512746901690
  0.0150596383911257  0.6641601699255527  0.6578935427674663
  0.4986197292997191  0.9968378932702450  0.3251952233752690
  0.7520249517904594  0.5040922035210303  0.1747057185839012
  0.4981560349951529  0.6625233386050847  0.9838851157583586
  0.7571554887800550  0.8341886481678455  0.8258573238522291
  0.2469209170560947  0.1788837835444607  0.1781071835848002
  0.0024984941119665  0.0002716289022584  0.6677530261866171
  0.2589892189376250  0.4846074190863814  0.4940577719289336
  0.0016158756436037  0.6648452480967577  0.9894078443689799
  0.7500669536472772  0.1820209986547397  0.1933203704939389
  0.5003004093101777  0.9984745540932003  0.6688608986003741
  0.7436682319777792  0.1677984770743064  0.8142704627832423
  0.7626611435053503  0.8107111286866560  0.1556564611204357
 
  0.00000000E+00  0.00000000E+00  0.00000000E+00
  0.00000000E+00  0.00000000E+00  0.00000000E+00
  0.00000000E+00  0.00000000E+00  0.00000000E+00
  0.00000000E+00  0.00000000E+00  0.00000000E+00
  0.00000000E+00  0.00000000E+00  0.00000000E+00
  0.00000000E+00  0.00000000E+00  0.00000000E+00
  0.00000000E+00  0.00000000E+00  0.00000000E+00
  0.00000000E+00  0.00000000E+00  0.00000000E+00
  0.00000000E+00  0.00000000E+00  0.00000000E+00
  0.00000000E+00  0.00000000E+00  0.00000000E+00
  0.00000000E+00  0.00000000E+00  0.00000000E+00
  0.00000000E+00  0.00000000E+00  0.00000000E+00
  0.00000000E+00  0.00000000E+00  0.00000000E+00
  0.00000000E+00  0.00000000E+00  0.00000000E+00
  0.00000000E+00  0.00000000E+00  0.00000000E+00
  0.00000000E+00  0.00000000E+00  0.00000000E+00
  0.00000000E+00  0.00000000E+00  0.00000000E+00
  0.00000000E+00  0.00000000E+00  0.00000000E+00
  0.00000000E+00  0.00000000E+00  0.00000000E+00
  0.00000000E+00  0.00000000E+00  0.00000000E+00
  0.00000000E+00  0.00000000E+00  0.00000000E+00
  0.00000000E+00  0.00000000E+00  0.00000000E+00
  0.00000000E+00  0.00000000E+00  0.00000000E+00
  0.00000000E+00  0.00000000E+00  0.00000000E+00
  0.00000000E+00  0.00000000E+00  0.00000000E+00
  0.00000000E+00  0.00000000E+00  0.00000000E+00
  0.00000000E+00  0.00000000E+00  0.00000000E+00
  0.00000000E+00  0.00000000E+00  0.00000000E+00
  0.00000000E+00  0.00000000E+00  0.00000000E+00
  0.00000000E+00  0.00000000E+00  0.00000000E+00
  0.00000000E+00  0.00000000E+00  0.00000000E+00
  0.00000000E+00  0.00000000E+00  0.00000000E+00
  0.00000000E+00  0.00000000E+00  0.00000000E+00
  0.00000000E+00  0.00000000E+00  0.00000000E+00
  0.00000000E+00  0.00000000E+00  0.00000000E+00
  0.00000000E+00  0.00000000E+00  0.00000000E+00
