generated by pypospack
   4.98831
  1.381033   0.000996  -0.000686
  0.001548   2.053672   0.002399
 -0.000966   0.002324   2.049622
 Ta Hf Zr Nb
 11 9 8 8
Direct
  0.253510   0.165297   0.506415
  0.016299   0.326963   0.339751
  0.007321   0.338232   0.666009
  0.234244   0.485133   0.833636
  0.254576   0.860047   0.516982
  0.482949   0.324388   0.335416
  0.765350   0.493848   0.816217
  0.748679   0.848439   0.516626
  0.244164   0.844608   0.835135
  0.236945   0.816582   0.142668
  0.492570   0.341995   0.671780
  0.252844   0.164509   0.822909
  0.246473   0.499115   0.165767
  0.015677   0.679257   0.345146
  0.504415   0.003435   0.011035
  0.747250   0.167771   0.505562
  0.510414   0.326240   0.997225
  0.744457   0.489934   0.498982
  0.488292   0.684689   0.341542
  0.488216   0.662217   0.664966
  0.989003   0.005678   0.008630
  0.001854   0.996496   0.328416
  0.984062   0.323488   0.999675
  0.015524   0.664394   0.657873
  0.499059   0.996367   0.325213
  0.752194   0.505248   0.174284
  0.497323   0.662630   0.984693
  0.756640   0.834100   0.825480
  0.247020   0.182935   0.178675
  0.002489   0.000534   0.667653
  0.259086   0.484638   0.494506
  0.002959   0.664567   0.989446
  0.750573   0.180911   0.193386
  0.500051   0.998896   0.668715
  0.744062   0.166997   0.813555
  0.763446   0.809428   0.156028
