generated by pypospack
   4.98831
  1.392232  -0.002855   0.009345
 -0.004228   2.055397   0.000522
  0.013671   0.000312   2.045605
 Ta Hf Nb Zr
 8 9 11 8
Direct
  0.739086   0.495615   0.832731
  0.729602   0.498381   0.171593
  0.038381   0.991515   0.668936
  0.518490   0.669535   0.340628
  0.753311   0.505822   0.494920
  0.984133   0.668426   0.328381
  0.500569   0.652011   0.661019
  0.492910   0.013354   0.997290
  0.229322   0.170928   0.486861
  0.266687   0.506538   0.168139
  0.998088   0.340784   0.999502
  0.975816   0.661730   0.005342
  0.264225   0.822026   0.169272
  0.467101   0.005048   0.658563
  0.757825   0.833382   0.505629
  0.010971   0.657727   0.668776
  0.271346   0.815829   0.843886
  0.535090   0.659593   0.001957
  0.996033   0.982323   0.323121
  0.497749   0.986460   0.345302
  0.741314   0.831908   0.182093
  0.514506   0.345002   0.344037
  0.263386   0.504775   0.840719
  0.977402   0.351067   0.316883
  0.006340   0.347424   0.680468
  0.250121   0.829951   0.489568
  0.492998   0.333738   0.987966
  0.232688   0.173985   0.828195
  0.251368   0.173819   0.184048
  0.999769  -0.001737   0.006005
  0.767637   0.162823   0.498933
  0.765060   0.168545   0.820623
  0.729792   0.173796   0.177275
  0.492894   0.337353   0.665924
  0.744395   0.835478   0.818092
  0.243589   0.495051   0.487320
