generated by pypospack
   4.98831
  1.394240   0.001547  -0.006174
  0.002326   2.054307   0.003067
 -0.009206   0.003092   2.042469
 Nb Hf Zr Ta
 6 8 9 13
Direct
  0.743747   0.167526   0.177926
  0.710715   0.161806   0.841094
  0.261430   0.835256   0.834557
  0.518224   0.340601   0.000939
  0.737210   0.509590   0.835342
  0.502892   0.990099   0.998108
  0.278187   0.166635   0.831593
  0.991481   0.002621   0.996023
  0.979202   0.326067   0.672085
  0.977344   0.009411   0.683399
  0.013463   0.667263   0.313827
  0.497837   0.987401   0.336951
  0.518463   0.332291   0.649596
  0.980157   0.330815   0.993720
  0.010209   0.351210   0.330812
  0.491882   0.666269   0.324763
  0.238371   0.160587   0.495875
  0.998011   0.665931   0.003153
  0.765451   0.519712   0.504643
  0.761980   0.826603   0.507707
  0.257827   0.494492   0.831500
  0.257332   0.168503   0.165209
  0.242367   0.825931   0.514904
  0.499391   0.342361   0.342950
  0.732377   0.831429   0.835798
  0.738207   0.838269   0.155798
  0.999008   0.982422   0.315610
  0.279406   0.486485   0.154768
  0.263388   0.840571   0.150268
  0.516089   0.001202   0.662377
  0.728921   0.493019   0.165147
  0.757391   0.159271   0.480747
  0.503637   0.667579   0.001935
  0.503122   0.667990   0.681934
  0.247728   0.512198   0.515187
  0.997539   0.670588   0.693754
