generated by pypospack                  
   4.98831000000000     
     1.3830549760357775   -0.0014198387364992    0.0014246993519886
    -0.0020153456744602    2.0430223597124355   -0.0031555552419510
     0.0021319542358992   -0.0031857076921881    2.0626455723558821
   Zr   Nb   Ta   Hf
     9     9    10     8
Direct
  0.7528076022752515  0.1698523898472856  0.1728460216553123
  0.2421932586917104  0.8328034690751969  0.8264540065912657
  0.7545472400499853  0.4876183236870698  0.1730104400444066
  0.5013218331661676  0.6654491995673752  0.3372965028118741
  0.2642887978940492  0.1422827960493650  0.8311140567313418
  0.0147526993140667  0.3419238525833965  0.9831705851958074
  0.5033715151169137  0.9835259074893034  0.0249269585941931
  0.4956393319088059  0.3449231031233423  0.6721401567374612
  0.4974602790049983  0.6651091819783165  0.0032891294843482
  0.2382560634201806  0.5030242080602567  0.4947954331628496
  0.5013289347287332  0.9902904814701307  0.3289935444981658
 -0.0020115756359848  0.9954149270602694  0.3304547431898603
  0.2549365985212354  0.1609129700774670  0.4911694485137345
  0.0027633526775892  0.0177977167923354  0.6555085012507214
  0.9890715885160867  0.6583213455543178  0.6575899178491146
  0.5073708826816458  0.9882760082926555  0.6480997784619386
  0.0143513357939447  0.3417987649901384  0.3471784807810174
  0.4811223901689156  0.3441308083169936  0.3473849901287737
  0.7661832668190920  0.8418695382479439  0.5005820667595496
  0.2385868868003562  0.4948902214157766  0.1742048997437456
  0.2253438578910016  0.5286825587902494  0.8289198602198586
 -0.0003881051747095  0.6687626606578764  0.0104170556816234
  0.2275095909475015  0.8336689443534409  0.1805168210366090
  0.7584969759102153  0.4919187033425874  0.4924282717438733
  0.7718307272421846  0.8309767081857441  0.1760167471382962
  0.9987517387084185  0.9842721863286770  0.0144056603576848
  0.7705221218498385  0.5189590985133379  0.8327458259341447
  0.9952306696992771  0.6649089253573348  0.3329475390771570
  0.7438909129373033  0.1663806021457178  0.4915754841425280
  0.7646210863991173  0.8362734214720761  0.8251299258488398
  0.4856703617475284  0.3492952810339484  0.9833055446954767
  0.2446343179084739  0.1715997720685955  0.1754240964810723
  0.0065825070076760  0.3319713106783239  0.6650540128399435
  0.2348960861883113  0.8395206575904574  0.4987101015926404
  0.7446339574615822  0.1487049956552678  0.8321700119967054
  0.5094249113625241  0.6638899601474201  0.6600173790280663
 
  0.00000000E+00  0.00000000E+00  0.00000000E+00
  0.00000000E+00  0.00000000E+00  0.00000000E+00
  0.00000000E+00  0.00000000E+00  0.00000000E+00
  0.00000000E+00  0.00000000E+00  0.00000000E+00
  0.00000000E+00  0.00000000E+00  0.00000000E+00
  0.00000000E+00  0.00000000E+00  0.00000000E+00
  0.00000000E+00  0.00000000E+00  0.00000000E+00
  0.00000000E+00  0.00000000E+00  0.00000000E+00
  0.00000000E+00  0.00000000E+00  0.00000000E+00
  0.00000000E+00  0.00000000E+00  0.00000000E+00
  0.00000000E+00  0.00000000E+00  0.00000000E+00
  0.00000000E+00  0.00000000E+00  0.00000000E+00
  0.00000000E+00  0.00000000E+00  0.00000000E+00
  0.00000000E+00  0.00000000E+00  0.00000000E+00
  0.00000000E+00  0.00000000E+00  0.00000000E+00
  0.00000000E+00  0.00000000E+00  0.00000000E+00
  0.00000000E+00  0.00000000E+00  0.00000000E+00
  0.00000000E+00  0.00000000E+00  0.00000000E+00
  0.00000000E+00  0.00000000E+00  0.00000000E+00
  0.00000000E+00  0.00000000E+00  0.00000000E+00
  0.00000000E+00  0.00000000E+00  0.00000000E+00
  0.00000000E+00  0.00000000E+00  0.00000000E+00
  0.00000000E+00  0.00000000E+00  0.00000000E+00
  0.00000000E+00  0.00000000E+00  0.00000000E+00
  0.00000000E+00  0.00000000E+00  0.00000000E+00
  0.00000000E+00  0.00000000E+00  0.00000000E+00
  0.00000000E+00  0.00000000E+00  0.00000000E+00
  0.00000000E+00  0.00000000E+00  0.00000000E+00
  0.00000000E+00  0.00000000E+00  0.00000000E+00
  0.00000000E+00  0.00000000E+00  0.00000000E+00
  0.00000000E+00  0.00000000E+00  0.00000000E+00
  0.00000000E+00  0.00000000E+00  0.00000000E+00
  0.00000000E+00  0.00000000E+00  0.00000000E+00
  0.00000000E+00  0.00000000E+00  0.00000000E+00
  0.00000000E+00  0.00000000E+00  0.00000000E+00
  0.00000000E+00  0.00000000E+00  0.00000000E+00
