generated by pypospack                  
   4.98831000000000     
     1.3942400523760077    0.0015468440461608   -0.0061738400494745
     0.0023261884786391    2.0543069103079867    0.0030672465357440
    -0.0092060457659373    0.0030916874741692    2.0424690459903236
   Ta   Hf   Nb   Zr
    13     9     5     9
Direct
  0.4993911668732246  0.3423612952602392  0.3429496059230136
  0.7323768651417764  0.8314294899821291  0.8357975588822842
  0.7382065009574300  0.8382689150766289  0.1557982354428795
  0.9990084140687256  0.9824219802482614  0.3156095160290664
  0.2794058187577357  0.4864846354138586  0.1547676187840298
  0.2633876995154912  0.8405705301281875  0.1502675890949455
  0.5160886756861717  0.0012020901562872  0.6623769143803321
  0.7289206764911920  0.4930191924434094  0.1651468642287941
  0.7573911156611317  0.1592708230464702  0.4807469125666543
  0.5036366210090257  0.6675793787231283  0.0019354448719278
  0.5031224876008304  0.6679896639952775  0.6819342996891430
  0.2477280300060503  0.5121975128427330  0.5151872642402788
  0.9975391260443134  0.6705883871009540  0.6937543256426363
  0.2781868401349881  0.1666354004162927  0.8315930548296553
  0.9914805562273792  0.0026211708750697  0.9960228578573169
  0.9792018995939796  0.3260669570221174  0.6720852696908046
  0.7437472558848545  0.1675255448350118  0.1779255570069880
  0.9773441847572419  0.0094110855103236  0.6833993165828453
  0.0134627398010291  0.6672629417647671  0.3138270539328651
  0.4978367681894519  0.9874011163730225  0.3369507457163049
  0.5184625729091881  0.3322909280268416  0.6495964792573694
  0.9801568880185170  0.3308153159382149  0.9937200783500184
  0.7107154987691253  0.1618060925686248  0.8410936576386674
  0.2614295851646428  0.8352562976167583  0.8345566852068974
  0.5182243965985729  0.3406005678671597  0.0009387955329747
  0.7372095102123075  0.5095903717116218  0.8353416940297373
  0.5028923668500026  0.9900992843086704  0.9981082571927592
  0.0102091370376187  0.3512104436822473  0.3308118186780596
  0.4918817923134333  0.6662692254162788  0.3247626412912625
  0.2383712623184731  0.1605872588103310  0.4958748882175478
  0.9980110739840901  0.6659308805142452  0.0031528133731403
  0.7654513272354734  0.5197119160394087  0.5046425191285208
  0.7619796999368426  0.8266032957128490  0.5077069386832938
  0.2578272886465392  0.4944920368974919  0.8315003544867984
  0.2573315758407996  0.1685030340435244  0.1652091655386540
  0.2423665817623615  0.8259309396315406  0.5149042080015338
 
  0.00000000E+00  0.00000000E+00  0.00000000E+00
  0.00000000E+00  0.00000000E+00  0.00000000E+00
  0.00000000E+00  0.00000000E+00  0.00000000E+00
  0.00000000E+00  0.00000000E+00  0.00000000E+00
  0.00000000E+00  0.00000000E+00  0.00000000E+00
  0.00000000E+00  0.00000000E+00  0.00000000E+00
  0.00000000E+00  0.00000000E+00  0.00000000E+00
  0.00000000E+00  0.00000000E+00  0.00000000E+00
  0.00000000E+00  0.00000000E+00  0.00000000E+00
  0.00000000E+00  0.00000000E+00  0.00000000E+00
  0.00000000E+00  0.00000000E+00  0.00000000E+00
  0.00000000E+00  0.00000000E+00  0.00000000E+00
  0.00000000E+00  0.00000000E+00  0.00000000E+00
  0.00000000E+00  0.00000000E+00  0.00000000E+00
  0.00000000E+00  0.00000000E+00  0.00000000E+00
  0.00000000E+00  0.00000000E+00  0.00000000E+00
  0.00000000E+00  0.00000000E+00  0.00000000E+00
  0.00000000E+00  0.00000000E+00  0.00000000E+00
  0.00000000E+00  0.00000000E+00  0.00000000E+00
  0.00000000E+00  0.00000000E+00  0.00000000E+00
  0.00000000E+00  0.00000000E+00  0.00000000E+00
  0.00000000E+00  0.00000000E+00  0.00000000E+00
  0.00000000E+00  0.00000000E+00  0.00000000E+00
  0.00000000E+00  0.00000000E+00  0.00000000E+00
  0.00000000E+00  0.00000000E+00  0.00000000E+00
  0.00000000E+00  0.00000000E+00  0.00000000E+00
  0.00000000E+00  0.00000000E+00  0.00000000E+00
  0.00000000E+00  0.00000000E+00  0.00000000E+00
  0.00000000E+00  0.00000000E+00  0.00000000E+00
  0.00000000E+00  0.00000000E+00  0.00000000E+00
  0.00000000E+00  0.00000000E+00  0.00000000E+00
  0.00000000E+00  0.00000000E+00  0.00000000E+00
  0.00000000E+00  0.00000000E+00  0.00000000E+00
  0.00000000E+00  0.00000000E+00  0.00000000E+00
  0.00000000E+00  0.00000000E+00  0.00000000E+00
  0.00000000E+00  0.00000000E+00  0.00000000E+00
