generated by pypospack                  
   4.98831000000000     
     1.3989662777901870    0.0019236913439114    0.0008873518877876
     0.0029595737567013    2.0532028357726482    0.0045912738659463
     0.0013613706708792    0.0045615115212536    2.0613950639782552
   Hf   Nb   Ta   Zr
    12     5    11     8
Direct
  0.4815115521276323  0.3255703797886355  0.9998227441557799
  0.7656468226395368  0.4963347312181059  0.1686163640076307
  0.2689107816617567  0.8280454121381863  0.8181699624968325
  0.7404167483079298  0.8261347618729521  0.5002736990841790
  0.7528411445241667  0.4979686383898146  0.8336143045845847
  0.2220518071296975  0.4958004594717886  0.1631679407675080
  0.0151802428559408  0.6769105005412723  0.3380796394152579
  0.4838552357776895  0.3269877908280969  0.3296644516312978
  0.5009707508790631  0.6728782095286838  0.0164698106889790
  0.5203639104106206  0.0332587123230670  0.6686841713925009
  0.9870726496661673  0.0109729456561443  0.6689600835998575
  0.7267794668580644  0.8122183517247160  0.8036415016019944
  0.7642136770390682  0.1758003143688737  0.4879348870058785
  0.2270752611940259  0.1650138213346522  0.1684929011343218
  0.7578802245662556  0.1872176112765080  0.8440806592497279
  0.2461405227346380  0.1682117920517282  0.8346087275978870
  0.0221640446743596  0.3263412453947422  0.9862108936734341
  0.7428762231944657  0.8325123051358697  0.1935563213899526
  0.2430621337576674  0.1647776216093159  0.4972059171666839
  0.0209569739325715  0.3269642405217262  0.3470837166414025
  0.2425829293950452  0.4983917036808091  0.8322723654809639
  0.2545877938160140  0.8372443733735941  0.1777049287770942
  0.4924810618990501  0.3305136380474978  0.6686271022459725
  0.2536298415456074  0.4950675232646983  0.4996795809674329
  0.4852476913326689  0.6647697997198946  0.3205906144109210
  0.4708731861643661  0.6331928029157932  0.6645350145528546
  0.0230080304204727  0.6551912185016312  0.6624484751398464
  0.0063231690514042 -0.0016521611642798  0.3366918316479837
  0.5040681472316290  0.0001635820497828  0.0020335669297199
  0.7437590686171984  0.5026995438638230  0.4993339411106624
  0.9968739166056952  0.9924155505415159  0.0003644394704916
  0.4982089387293326  0.0108957179599924  0.3282636718688313
  0.2651471334602410  0.8369406071676956  0.5070183804795954
  0.7792611571444676  0.1778284714444253  0.1674471256148485
  0.9904030012252322  0.6875118480368642  0.0005829232287081
  0.0035727594302403  0.3289189354213874  0.6640653407883788
 
  0.00000000E+00  0.00000000E+00  0.00000000E+00
  0.00000000E+00  0.00000000E+00  0.00000000E+00
  0.00000000E+00  0.00000000E+00  0.00000000E+00
  0.00000000E+00  0.00000000E+00  0.00000000E+00
  0.00000000E+00  0.00000000E+00  0.00000000E+00
  0.00000000E+00  0.00000000E+00  0.00000000E+00
  0.00000000E+00  0.00000000E+00  0.00000000E+00
  0.00000000E+00  0.00000000E+00  0.00000000E+00
  0.00000000E+00  0.00000000E+00  0.00000000E+00
  0.00000000E+00  0.00000000E+00  0.00000000E+00
  0.00000000E+00  0.00000000E+00  0.00000000E+00
  0.00000000E+00  0.00000000E+00  0.00000000E+00
  0.00000000E+00  0.00000000E+00  0.00000000E+00
  0.00000000E+00  0.00000000E+00  0.00000000E+00
  0.00000000E+00  0.00000000E+00  0.00000000E+00
  0.00000000E+00  0.00000000E+00  0.00000000E+00
  0.00000000E+00  0.00000000E+00  0.00000000E+00
  0.00000000E+00  0.00000000E+00  0.00000000E+00
  0.00000000E+00  0.00000000E+00  0.00000000E+00
  0.00000000E+00  0.00000000E+00  0.00000000E+00
  0.00000000E+00  0.00000000E+00  0.00000000E+00
  0.00000000E+00  0.00000000E+00  0.00000000E+00
  0.00000000E+00  0.00000000E+00  0.00000000E+00
  0.00000000E+00  0.00000000E+00  0.00000000E+00
  0.00000000E+00  0.00000000E+00  0.00000000E+00
  0.00000000E+00  0.00000000E+00  0.00000000E+00
  0.00000000E+00  0.00000000E+00  0.00000000E+00
  0.00000000E+00  0.00000000E+00  0.00000000E+00
  0.00000000E+00  0.00000000E+00  0.00000000E+00
  0.00000000E+00  0.00000000E+00  0.00000000E+00
  0.00000000E+00  0.00000000E+00  0.00000000E+00
  0.00000000E+00  0.00000000E+00  0.00000000E+00
  0.00000000E+00  0.00000000E+00  0.00000000E+00
  0.00000000E+00  0.00000000E+00  0.00000000E+00
  0.00000000E+00  0.00000000E+00  0.00000000E+00
  0.00000000E+00  0.00000000E+00  0.00000000E+00
