generated by pypospack
   4.98831
  1.401404   0.007613  -0.001871
  0.011372   2.061283   0.005543
 -0.002680   0.005536   2.066898
 Hf Nb Ta Zr
 12 5 11 8
Direct
  0.471222   0.318681   0.992083
  0.742770   0.487386   0.171455
  0.255114   0.828283   0.821828
  0.750408   0.825684   0.499994
  0.731887   0.499693   0.831063
  0.273804   0.505440   0.171251
  0.005629   0.666338   0.325935
  0.474967   0.316653   0.343651
  0.517252   0.687112   0.017191
  0.518123   0.025584   0.663365
  0.976385   0.015156   0.672410
  0.742264   0.809984   0.804224
  0.764458   0.181323   0.494608
  0.224469   0.160578   0.174971
  0.739971   0.190059   0.835630
  0.251030   0.151916   0.825042
  0.027050   0.332365   0.990138
  0.757272   0.844028   0.194214
  0.227098   0.161822   0.499697
  0.024805   0.331832   0.341619
  0.269938   0.508952   0.823170
  0.250013   0.832895   0.178454
  0.488063   0.328451   0.664660
  0.254166   0.498141   0.501387
  0.501861   0.676386   0.326332
  0.477211   0.648718   0.654716
  0.022689   0.645877   0.665264
  0.004754   0.000502   0.334105
  0.499553   0.000141   0.002314
  0.745390   0.498824   0.496051
  0.994071   0.993247   0.001432
  0.494956   0.007193   0.332596
  0.251348   0.834601   0.504059
  0.768909   0.177809   0.170832
  0.996331   0.674980   0.005080
  0.004767   0.333379   0.669177
