generated by pypospack                  
   4.98831000000000     
     1.3767948987885974    0.0008107605226247    0.0002394463167043
     0.0012603948188182    2.0607022144194977    0.0061808881707279
     0.0004066104298188    0.0060790053061610    2.0611443839845420
   Hf   Zr   Nb   Ta
    10     8     8    10
Direct
  0.2557919727870602  0.1658462097916095  0.8218498074275082
  0.2447873333789576  0.4993310388848812  0.1662052111046324
  0.2342014308038958  0.8161188670883568  0.1404355788478280
  0.0116953792175171  0.6780224354374745  0.3516179707226202
  0.5106978942319043  0.0088242159994035  0.0102934981416744
  0.7461181191462430  0.1678515555337486  0.5061928952328596
  0.5082704513674516  0.3256338239942977  0.0014142086440379
  0.7429063318398836  0.4883583418796955  0.4989001586816204
  0.4931397679018625  0.6844895045192927  0.3464691725634574
  0.4894554067489673  0.6660619920414286  0.6632943879476970
  0.9833031342328009  0.0117662930934814  0.0067957385978752
 -0.0000447349709521  0.9985068364539801  0.3298422812519011
  0.9881739324523305  0.3249615886895246  0.9984272016137458
  0.0136506695938217  0.6639344901906671  0.6593479833615452
  0.5008052496885093  0.9975732739081067  0.3267765643506376
  0.7534833360556434  0.5056642514754077  0.1750290337981916
  0.5020979260080134  0.6556089626086372  0.9789867201995626
  0.7559138827223774  0.8341580445697185  0.8284150880838530
  0.0021969345564190  0.0009377945069743  0.6698770925459071
  0.2611764516191098  0.4836055063302300  0.4963545527857197
  0.9960876614057150  0.6560204490266022  0.9806187751163884
  0.7519846857483259  0.1835988162396472  0.1936733453480455
  0.4994742243585605  0.9961430423612164  0.6697672830319122
  0.7418745685517135  0.1678603433626715  0.8129102435354781
  0.4930112939663461  0.3397322180039642  0.6686949773301947
  0.7647279817326084  0.8111167523025478  0.1557292615979551
  0.2460341180945249  0.1825680042718941  0.1803798068424019
  0.2534731121509384  0.1656227963148157  0.5060383142396779
  0.0166571943017484  0.3273922879788431  0.3408479267663865
  0.0071840482823521  0.3373372102914601  0.6657497975573106
  0.2388523937850540  0.4833502759209956  0.8299920541665579
  0.2507220741045886  0.8613204932766384  0.5176554446503309
  0.4832012108499715  0.3249757437461285  0.3332383429567848
  0.7618183555386304  0.4916581509339860  0.8158383552822631
  0.7520421159539711  0.8512139684029251  0.5180059689619345
  0.2450310917931355  0.8428374205687394  0.8343309567135276
 
  0.00000000E+00  0.00000000E+00  0.00000000E+00
  0.00000000E+00  0.00000000E+00  0.00000000E+00
  0.00000000E+00  0.00000000E+00  0.00000000E+00
  0.00000000E+00  0.00000000E+00  0.00000000E+00
  0.00000000E+00  0.00000000E+00  0.00000000E+00
  0.00000000E+00  0.00000000E+00  0.00000000E+00
  0.00000000E+00  0.00000000E+00  0.00000000E+00
  0.00000000E+00  0.00000000E+00  0.00000000E+00
  0.00000000E+00  0.00000000E+00  0.00000000E+00
  0.00000000E+00  0.00000000E+00  0.00000000E+00
  0.00000000E+00  0.00000000E+00  0.00000000E+00
  0.00000000E+00  0.00000000E+00  0.00000000E+00
  0.00000000E+00  0.00000000E+00  0.00000000E+00
  0.00000000E+00  0.00000000E+00  0.00000000E+00
  0.00000000E+00  0.00000000E+00  0.00000000E+00
  0.00000000E+00  0.00000000E+00  0.00000000E+00
  0.00000000E+00  0.00000000E+00  0.00000000E+00
  0.00000000E+00  0.00000000E+00  0.00000000E+00
  0.00000000E+00  0.00000000E+00  0.00000000E+00
  0.00000000E+00  0.00000000E+00  0.00000000E+00
  0.00000000E+00  0.00000000E+00  0.00000000E+00
  0.00000000E+00  0.00000000E+00  0.00000000E+00
  0.00000000E+00  0.00000000E+00  0.00000000E+00
  0.00000000E+00  0.00000000E+00  0.00000000E+00
  0.00000000E+00  0.00000000E+00  0.00000000E+00
  0.00000000E+00  0.00000000E+00  0.00000000E+00
  0.00000000E+00  0.00000000E+00  0.00000000E+00
  0.00000000E+00  0.00000000E+00  0.00000000E+00
  0.00000000E+00  0.00000000E+00  0.00000000E+00
  0.00000000E+00  0.00000000E+00  0.00000000E+00
  0.00000000E+00  0.00000000E+00  0.00000000E+00
  0.00000000E+00  0.00000000E+00  0.00000000E+00
  0.00000000E+00  0.00000000E+00  0.00000000E+00
  0.00000000E+00  0.00000000E+00  0.00000000E+00
  0.00000000E+00  0.00000000E+00  0.00000000E+00
  0.00000000E+00  0.00000000E+00  0.00000000E+00
