generated by pypospack                  
   4.98831000000000     
     1.3859551376780983    0.0014924582756323   -0.0029408288436318
     0.0021699024143598    2.0649234608237972    0.0010195747017384
    -0.0044678600435192    0.0009911041014577    2.0670261454486569
   Ta   Zr   Nb   Hf
    10     8     6    12
Direct
  0.9956142311292512  0.3476436423529450 -0.0006860858417727
 -0.0019838290608930  0.9960693067565151  0.3347863995357222
  0.2627919613656639  0.4825058299897840  0.1473498580171553
  0.9754499524896086  0.3330995049755173  0.6762593694299197
  0.2391520217110427  0.4899257050343335  0.8329325638673349
  0.2449918139589761  0.8593901267395885  0.1803692785188821
  0.2442652798283996  0.8317280032854061  0.5008091078216556
  0.4956270356418250  0.9929717332650855  0.6604708929871368
  0.7391805555404004  0.4870817538804609  0.1546179296717049
  0.7782443516912165  0.1603735716844367  0.5030774207434151
  0.7360710192382783  0.1671720152648154  0.8420521259489732
  0.9911069295355983  0.9814627183769074  0.9965860415906951
  0.2201615451200320  0.1647940160530945  0.5076859052172080
  0.2564799359068454  0.1732894936834672  0.8372628679844272
  0.0014095030470610  0.6663109972988794  0.0027446164016337
  0.5027497946160762  0.3358398648358728  0.3419112508139858
  0.7736585176565779  0.5167691923076670  0.5018248306640217
  0.4953381537387297  0.6671552213199105  0.6776084951080966
  0.7585360168764987  0.8371591400402407  0.1868481342483276
  0.0075910323361156  0.6741409951502523  0.6848699519095766
  0.2530061503391537  0.8318565001991403  0.8196098426314049
  0.5018246938379808  0.3511653763605065  0.9925881431191901
  0.7570325900886139  0.4956331583281513  0.8384598146928458
  0.7487315699441424  0.8273180472215657  0.8164224289048836
  0.7487312559367043  0.1737315094345710  0.1575912243775623
  0.2511518536822131  0.1657276204666132  0.1568600567799702
  0.0015289006074620  0.9934267923591370  0.6741348043266659
  0.0008484445424195  0.3404637879872423  0.3251018111522281
  0.2244189757512853  0.5101215562935619  0.5172767645128762
  0.0213735246957446  0.6678367264525433  0.3128312235518489
  0.5076899535324166  0.9714046720242115  0.9997599227711118
  0.5048626411163631  0.0048273057448139  0.3440909277869321
  0.5005346831266342  0.6678871435303522  0.0005272009366117
  0.4848746698435777  0.6694000523779140  0.3188895284658427
  0.7599060428675908  0.8293552447066923  0.4995052604381484
  0.5170562277203944  0.3349686742178209  0.6569710909137542
 
  0.00000000E+00  0.00000000E+00  0.00000000E+00
  0.00000000E+00  0.00000000E+00  0.00000000E+00
  0.00000000E+00  0.00000000E+00  0.00000000E+00
  0.00000000E+00  0.00000000E+00  0.00000000E+00
  0.00000000E+00  0.00000000E+00  0.00000000E+00
  0.00000000E+00  0.00000000E+00  0.00000000E+00
  0.00000000E+00  0.00000000E+00  0.00000000E+00
  0.00000000E+00  0.00000000E+00  0.00000000E+00
  0.00000000E+00  0.00000000E+00  0.00000000E+00
  0.00000000E+00  0.00000000E+00  0.00000000E+00
  0.00000000E+00  0.00000000E+00  0.00000000E+00
  0.00000000E+00  0.00000000E+00  0.00000000E+00
  0.00000000E+00  0.00000000E+00  0.00000000E+00
  0.00000000E+00  0.00000000E+00  0.00000000E+00
  0.00000000E+00  0.00000000E+00  0.00000000E+00
  0.00000000E+00  0.00000000E+00  0.00000000E+00
  0.00000000E+00  0.00000000E+00  0.00000000E+00
  0.00000000E+00  0.00000000E+00  0.00000000E+00
  0.00000000E+00  0.00000000E+00  0.00000000E+00
  0.00000000E+00  0.00000000E+00  0.00000000E+00
  0.00000000E+00  0.00000000E+00  0.00000000E+00
  0.00000000E+00  0.00000000E+00  0.00000000E+00
  0.00000000E+00  0.00000000E+00  0.00000000E+00
  0.00000000E+00  0.00000000E+00  0.00000000E+00
  0.00000000E+00  0.00000000E+00  0.00000000E+00
  0.00000000E+00  0.00000000E+00  0.00000000E+00
  0.00000000E+00  0.00000000E+00  0.00000000E+00
  0.00000000E+00  0.00000000E+00  0.00000000E+00
  0.00000000E+00  0.00000000E+00  0.00000000E+00
  0.00000000E+00  0.00000000E+00  0.00000000E+00
  0.00000000E+00  0.00000000E+00  0.00000000E+00
  0.00000000E+00  0.00000000E+00  0.00000000E+00
  0.00000000E+00  0.00000000E+00  0.00000000E+00
  0.00000000E+00  0.00000000E+00  0.00000000E+00
  0.00000000E+00  0.00000000E+00  0.00000000E+00
  0.00000000E+00  0.00000000E+00  0.00000000E+00
