generated by pypospack                  
   4.98831000000000     
     1.3960478819323787   -0.0033607015665985    0.0003150875370887
    -0.0048729673468700    2.0567866237698613    0.0058597955713629
     0.0005703416996121    0.0057645719986212    2.0452064295187773
   Ta   Hf   Nb   Zr
    11    12     6     7
Direct
  0.2340532791243924  0.1750248550854080  0.5094110147466152
  0.0359251089005039  0.3321934738017233  0.3410787230504056
  0.0183694113993099  0.3359695191019116  0.6680659136237763
  0.2601648960462746  0.4963244851529011  0.8282534392446820
  0.2503329729786249  0.8262575118835253  0.1492144394717326
  0.4860637108526362  0.3277824160693210  0.6669993182451959
  0.4839065754584138  0.3251172161347090  0.9942189492792329
  0.2622062136554116  0.5005711328455431  0.5091037784798903
  0.4865576463214167  0.6652548574630646  0.3140800400241337
  0.5047374109013372  0.0001952622033777 -0.0004358111293888
  0.5016518756623911  0.6552211330266444  0.6817160237232359
  0.7619563797843869  0.4924603556833593  0.1714650522352907
  0.2516320142729550  0.8282831524401512  0.8430309884486578
  0.7240116351088097  0.8284382841404326  0.4960440658479954
  0.7473795264023707  0.4880317766093739  0.8331495113635602
  0.2266144687775951  0.5069150938654076  0.1553933790351587
  0.0168822746100582  0.6807024644161747  0.3388052661885348
  0.7633270675315087  0.1786654737117921  0.4918698089404737
  0.4626282602383640  0.3363594592144561  0.3328451296599902
  0.0159605309741560  0.9967587925764289  0.3306754984430600
  0.7450422945088410  0.1792752009627967  0.1747195495141302
  0.5162374616410362  0.6670188114236421  0.0043144679850033
  0.5115968843440886  0.0127474315392425  0.6807086482526918
  0.7463089982083082  0.8259335090659022  0.8343521762309380
  0.2565077479369292  0.1660916734444271  0.1590172423462919
  0.9757316193662012  0.6789162665190631  0.0015897860701545
  0.7398828625023497  0.1832290557827429  0.8338336497044576
  0.7433990445111867  0.8342743287337456  0.1723530751006985
  0.2620702978729695  0.1678005864462596  0.8303821385877773
  0.7426732811898690  0.4965468892868070  0.4959754926547603
  0.9890153772060548  0.0000719195493803  0.0012437502228886
  0.0172154595739633  0.3173027511840510  0.9881763500048425
  0.0031441063945787  0.6610630326213213  0.6630030946886102
  0.4776360672699655  0.0023769711539874  0.3226740356696407
  0.9922282017177070  0.0057833061797961  0.6716194878748777
  0.2869420367550106  0.8250505506811214  0.5110515261700133
 
  0.00000000E+00  0.00000000E+00  0.00000000E+00
  0.00000000E+00  0.00000000E+00  0.00000000E+00
  0.00000000E+00  0.00000000E+00  0.00000000E+00
  0.00000000E+00  0.00000000E+00  0.00000000E+00
  0.00000000E+00  0.00000000E+00  0.00000000E+00
  0.00000000E+00  0.00000000E+00  0.00000000E+00
  0.00000000E+00  0.00000000E+00  0.00000000E+00
  0.00000000E+00  0.00000000E+00  0.00000000E+00
  0.00000000E+00  0.00000000E+00  0.00000000E+00
  0.00000000E+00  0.00000000E+00  0.00000000E+00
  0.00000000E+00  0.00000000E+00  0.00000000E+00
  0.00000000E+00  0.00000000E+00  0.00000000E+00
  0.00000000E+00  0.00000000E+00  0.00000000E+00
  0.00000000E+00  0.00000000E+00  0.00000000E+00
  0.00000000E+00  0.00000000E+00  0.00000000E+00
  0.00000000E+00  0.00000000E+00  0.00000000E+00
  0.00000000E+00  0.00000000E+00  0.00000000E+00
  0.00000000E+00  0.00000000E+00  0.00000000E+00
  0.00000000E+00  0.00000000E+00  0.00000000E+00
  0.00000000E+00  0.00000000E+00  0.00000000E+00
  0.00000000E+00  0.00000000E+00  0.00000000E+00
  0.00000000E+00  0.00000000E+00  0.00000000E+00
  0.00000000E+00  0.00000000E+00  0.00000000E+00
  0.00000000E+00  0.00000000E+00  0.00000000E+00
  0.00000000E+00  0.00000000E+00  0.00000000E+00
  0.00000000E+00  0.00000000E+00  0.00000000E+00
  0.00000000E+00  0.00000000E+00  0.00000000E+00
  0.00000000E+00  0.00000000E+00  0.00000000E+00
  0.00000000E+00  0.00000000E+00  0.00000000E+00
  0.00000000E+00  0.00000000E+00  0.00000000E+00
  0.00000000E+00  0.00000000E+00  0.00000000E+00
  0.00000000E+00  0.00000000E+00  0.00000000E+00
  0.00000000E+00  0.00000000E+00  0.00000000E+00
  0.00000000E+00  0.00000000E+00  0.00000000E+00
  0.00000000E+00  0.00000000E+00  0.00000000E+00
  0.00000000E+00  0.00000000E+00  0.00000000E+00
