generated by pypospack
   4.98831
  1.396165   0.000899   0.003562
  0.001370   2.057336  -0.000509
  0.005353  -0.000576   2.048775
 Zr Hf Ta Nb
 7 11 9 9
Direct
  0.766669   0.486942   0.498355
  0.994566   0.001526   0.996646
  0.009088   0.311734   0.989264
  0.008513   0.672467   0.665870
  0.482452   0.997848   0.313435
  0.755545   0.493342   0.167684
  0.506709   0.676312   0.997131
  0.722176   0.843320   0.498175
  0.004114   0.000441   0.672195
  0.751536   0.489971   0.833200
  0.234834   0.504237   0.150974
  0.019886   0.679798   0.346437
  0.505350   0.001131   0.999873
  0.749426   0.170825   0.500672
  0.481193   0.666941   0.333711
  0.468695   0.343437   0.340953
  0.021362   0.997685   0.332870
  0.749705   0.183620   0.182484
  0.257588   0.163956   0.510053
  0.033339   0.323577   0.341317
  0.015698   0.324285   0.670979
  0.245501   0.493496   0.840542
  0.283272   0.851051   0.513870
  0.250971   0.835466   0.837293
  0.227050   0.819017   0.147915
  0.481821   0.337814   0.666329
  0.489436   0.322352   0.992158
  0.752860   0.825415   0.832321
  0.256225   0.175964   0.165496
  0.225550   0.489505   0.509146
  0.991865   0.676040   0.992045
  0.497730   0.004623   0.680492
  0.735642   0.179340   0.818652
  0.770933   0.830841   0.169498
  0.266541   0.166614   0.821931
  0.486143   0.659078   0.670029
