generated by pypospack
   5.17602
  2.000000   0.000000   0.000000
  0.000000   2.000000   0.000000
  0.000000   0.000000   2.000000
 Pt Au
 16 16
Direct
  0.250000   0.250000   0.000000
  0.000000   0.250000   0.250000
  0.000000   0.000000   0.500000
  0.250000   0.000000   0.750000
  0.250000   0.750000   0.000000
  0.000000   0.750000   0.250000
  0.250000   0.750000   0.500000
  0.250000   0.500000   0.750000
  0.000000   0.750000   0.750000
  0.500000   0.000000   0.000000
  0.500000   0.000000   0.500000
  0.750000   0.250000   0.500000
  0.750000   0.000000   0.750000
  0.500000   0.500000   0.000000
  0.750000   0.750000   0.000000
  0.750000   0.750000   0.500000
  0.000000   0.000000   0.000000
  0.250000   0.000000   0.250000
  0.250000   0.250000   0.500000
  0.000000   0.250000   0.750000
  0.000000   0.500000   0.000000
  0.250000   0.500000   0.250000
  0.000000   0.500000   0.500000
  0.750000   0.250000   0.000000
  0.750000   0.000000   0.250000
  0.500000   0.250000   0.250000
  0.500000   0.250000   0.750000
  0.750000   0.500000   0.250000
  0.500000   0.750000   0.250000
  0.500000   0.500000   0.500000
  0.750000   0.500000   0.750000
  0.500000   0.750000   0.750000
