generated by pypospack
   4.98831
  1.399830   0.003797  -0.001475
  0.005572   2.049054   0.003547
 -0.002176   0.003408   2.054033
 Ta Zr Hf Nb
 6 10 9 11
Direct
  0.729228   0.496921   0.176150
  0.531140   0.667741   0.010593
  0.043014   0.004878   0.661597
  0.516769   0.669499   0.338920
  0.764440   0.498294   0.489197
  0.981833   0.668756   0.326039
  0.259248   0.167966   0.176766
  0.983862   0.005719   0.010339
  0.762905   0.163429   0.501159
  0.764847   0.171486   0.820470
  0.517873   0.997741   0.995887
  0.725480   0.177817   0.177731
  0.740139   0.491834   0.829200
  0.487563   0.662841   0.653170
  0.482400   0.331545   0.659931
  0.765250   0.836952   0.813251
  0.264281   0.505289   0.170682
  0.004593   0.337228   0.003878
  0.970702   0.661714   0.010850
  0.258392   0.826204   0.168950
  0.468042   0.003167   0.661173
  0.763871   0.838850   0.503711
  0.234943   0.495817   0.474587
  0.026865   0.652823   0.664941
  0.250723   0.825288   0.851322
  0.005311   0.990420   0.332269
  0.490654   0.990095   0.346255
  0.740668   0.831541   0.185840
  0.234056   0.169272   0.490279
  0.505355   0.338551   0.348535
  0.265017   0.499306   0.847586
  0.984943   0.340721   0.323602
  0.017960   0.339225   0.669177
  0.242598   0.834062   0.484166
  0.480106   0.335539   0.988716
  0.234935   0.171473   0.833076
