generated by pypospack                  
   4.98831000000000     
     1.3918035264953208   -0.0021873975478580    0.0079243367713202
    -0.0032414515303811    2.0554653485651735    0.0004461314502885
     0.0115783393629350    0.0002391811776250    2.0458358215599870
   Ta   Zr   Nb   Hf
     8     9    10     9
Direct
  0.7401180314429698  0.4948964467446970  0.8318253308774941
  0.7302260153582020  0.4977493147346886  0.1723738319134129
  0.5374760312168171  0.6595102772309585  0.0017107898677987
  0.0393884725618959  0.9925300755946309  0.6684363322306116
  0.5179561354978292  0.6697130776911181  0.3382857878956572
  0.7517824428212843  0.5066051057450454  0.4950131372228170
  0.9846709182637130  0.6683980893624745  0.3300127541448235
  0.4999970116072703  0.6522738928032963  0.6636004211053385
  0.2521799570108763  0.1736506197870648  0.1833774388530874
  0.9975614591068493  0.0002225059448910  0.0065987626266027
  0.7668526314687876  0.1628224358511656  0.4990902059111333
  0.7650341430862683  0.1687879930736905  0.8198847043241181
  0.4975972323356604  0.0102210291179790 -0.0021813093070243
  0.7291506140863482  0.1743616582331726  0.1779694974959096
  0.4925823926383450  0.3373062344099773  0.6660338312046942
  0.7463480597096074  0.8361573056909922  0.8164529402612286
  0.2451862269057400  0.4952434459283658  0.4872477170838787
  0.9962579845134131  0.9820527353866327  0.3233212182381943
  0.4966693067655943  0.9860210019353161  0.3447306707721378
  0.7416631553527485  0.8317262100634938  0.1819657654931728
  0.5141467111008889  0.3449174150221234  0.3445169410370211
  0.2630132654916170  0.5049142393520820  0.8416041258393367
  0.9775440723287562  0.3513661399105946  0.3177891909169179
  0.0066013518900113  0.3473831256244060  0.6804638715586048
  0.2505349376914263  0.8297155006046014  0.4892784218105160
  0.4936341134553416  0.3357659941186477  0.9878994550346673
  0.2337758895239279  0.1738788311268252  0.8293565788912354
  0.2293644340722654  0.1711450852461801  0.4866757961493821
  0.2657114067311926  0.5067176301286374  0.1677490253167766
 -0.0020382351160302  0.3395574894910783  0.9996079681878061
  0.9725806658935487  0.6612531089998065  0.0049949215621246
  0.2624645206054554  0.8218052970449088  0.1680551790541397
  0.4662836877513464  0.0049100748685873  0.6591592179075833
  0.7566780429962853  0.8328989563008515  0.5054879619529871
  0.0124578797846803  0.6572716166624974  0.6667857821437820
  0.2685460340490686  0.8162590401685265  0.8448257344220320
 
  0.00000000E+00  0.00000000E+00  0.00000000E+00
  0.00000000E+00  0.00000000E+00  0.00000000E+00
  0.00000000E+00  0.00000000E+00  0.00000000E+00
  0.00000000E+00  0.00000000E+00  0.00000000E+00
  0.00000000E+00  0.00000000E+00  0.00000000E+00
  0.00000000E+00  0.00000000E+00  0.00000000E+00
  0.00000000E+00  0.00000000E+00  0.00000000E+00
  0.00000000E+00  0.00000000E+00  0.00000000E+00
  0.00000000E+00  0.00000000E+00  0.00000000E+00
  0.00000000E+00  0.00000000E+00  0.00000000E+00
  0.00000000E+00  0.00000000E+00  0.00000000E+00
  0.00000000E+00  0.00000000E+00  0.00000000E+00
  0.00000000E+00  0.00000000E+00  0.00000000E+00
  0.00000000E+00  0.00000000E+00  0.00000000E+00
  0.00000000E+00  0.00000000E+00  0.00000000E+00
  0.00000000E+00  0.00000000E+00  0.00000000E+00
  0.00000000E+00  0.00000000E+00  0.00000000E+00
  0.00000000E+00  0.00000000E+00  0.00000000E+00
  0.00000000E+00  0.00000000E+00  0.00000000E+00
  0.00000000E+00  0.00000000E+00  0.00000000E+00
  0.00000000E+00  0.00000000E+00  0.00000000E+00
  0.00000000E+00  0.00000000E+00  0.00000000E+00
  0.00000000E+00  0.00000000E+00  0.00000000E+00
  0.00000000E+00  0.00000000E+00  0.00000000E+00
  0.00000000E+00  0.00000000E+00  0.00000000E+00
  0.00000000E+00  0.00000000E+00  0.00000000E+00
  0.00000000E+00  0.00000000E+00  0.00000000E+00
  0.00000000E+00  0.00000000E+00  0.00000000E+00
  0.00000000E+00  0.00000000E+00  0.00000000E+00
  0.00000000E+00  0.00000000E+00  0.00000000E+00
  0.00000000E+00  0.00000000E+00  0.00000000E+00
  0.00000000E+00  0.00000000E+00  0.00000000E+00
  0.00000000E+00  0.00000000E+00  0.00000000E+00
  0.00000000E+00  0.00000000E+00  0.00000000E+00
  0.00000000E+00  0.00000000E+00  0.00000000E+00
  0.00000000E+00  0.00000000E+00  0.00000000E+00
