generated by pypospack                  
   4.98831000000000     
     1.4026015821730276   -0.0034247507135453    0.0038634684683820
    -0.0049431302389544    2.0571718022771353    0.0087558589577647
     0.0057228458456202    0.0086449195431101    2.0497563962312788
   Ta   Hf   Nb   Zr
    12    11     4     9
Direct
  0.7425665558875799  0.8305714068547494  0.1750945375777662
  0.2622881825484232  0.1665762124683926  0.5082661193981755
  0.0352375701747710  0.3304919685406431  0.3464880268087286
  0.2700925644648727  0.4992685943973591  0.8308889961433484
  0.2477784120065397  0.8278653940266256  0.1504695376300289
  0.4907609975096289  0.3275808654214983  0.6718538393295266
  0.4807899984804089  0.3254947480547319  0.9939097551413143
  0.2778099903630470  0.5050095228581932  0.5062613034628316
  0.4812445276393011  0.6659532902617016  0.3153606427312238
  0.5040267564084880  0.9979581352028954  0.9999737464408902
  0.5031187608631117  0.6590557665338520  0.6792512310228255
  0.7527801678155699  0.8206414370957307  0.8368264952909852
  0.7596239629351867  0.4970301035216460  0.1714644563991715
  0.2483799991259579  0.8287274996476732  0.8405252950574169
  0.7267797496149601  0.8296458292485884  0.4918081020983891
  0.7388302842631753  0.4965524990919086  0.8381311217949279
  0.2234224126990893  0.5046604137618068  0.1552297043053744
  0.0190355880838591  0.6777114588460961  0.3404594907601891
  0.7416147303074641  0.1758005821120180  0.4877249790936156
  0.4596073571007503  0.3358228514942222  0.3279228650951869
  0.0162350247393176  0.9983071714022856  0.3315360285320071
  0.5097706324458263  0.6708701429078052  0.0077625707961479
  0.5226336058206774  0.0084011471459419  0.6843058191455595
  0.2439490310929946  0.1693387240602301  0.1581967403436784
  0.9810373181267997  0.6778613648760772  0.0036776487668494
  0.7347257794966966  0.1799378961508672  0.8395075626200809
  0.2683441107799910  0.1627509531221207  0.8325009295523611
  0.7350824787657287  0.4960755476240763  0.4921812202461789
  0.9889706256339209  0.0005259654767276  0.0006297739768428
  0.0151818399890045  0.3204735960135748  0.9839326548686093
  0.0060161326765839  0.6604981291092499  0.6612477449594728
  0.4744713966191016  0.0029242643848723  0.3174786094662342
  0.9911333091390064  0.0047422742644449  0.6707045584772309
  0.2833790125202724  0.8313178888651082  0.5119635022116914
  0.0139335410723333  0.3349643159879550  0.6639479132499816
  0.7493425927895827  0.1785990391683072  0.1725144772051627
 
  0.00000000E+00  0.00000000E+00  0.00000000E+00
  0.00000000E+00  0.00000000E+00  0.00000000E+00
  0.00000000E+00  0.00000000E+00  0.00000000E+00
  0.00000000E+00  0.00000000E+00  0.00000000E+00
  0.00000000E+00  0.00000000E+00  0.00000000E+00
  0.00000000E+00  0.00000000E+00  0.00000000E+00
  0.00000000E+00  0.00000000E+00  0.00000000E+00
  0.00000000E+00  0.00000000E+00  0.00000000E+00
  0.00000000E+00  0.00000000E+00  0.00000000E+00
  0.00000000E+00  0.00000000E+00  0.00000000E+00
  0.00000000E+00  0.00000000E+00  0.00000000E+00
  0.00000000E+00  0.00000000E+00  0.00000000E+00
  0.00000000E+00  0.00000000E+00  0.00000000E+00
  0.00000000E+00  0.00000000E+00  0.00000000E+00
  0.00000000E+00  0.00000000E+00  0.00000000E+00
  0.00000000E+00  0.00000000E+00  0.00000000E+00
  0.00000000E+00  0.00000000E+00  0.00000000E+00
  0.00000000E+00  0.00000000E+00  0.00000000E+00
  0.00000000E+00  0.00000000E+00  0.00000000E+00
  0.00000000E+00  0.00000000E+00  0.00000000E+00
  0.00000000E+00  0.00000000E+00  0.00000000E+00
  0.00000000E+00  0.00000000E+00  0.00000000E+00
  0.00000000E+00  0.00000000E+00  0.00000000E+00
  0.00000000E+00  0.00000000E+00  0.00000000E+00
  0.00000000E+00  0.00000000E+00  0.00000000E+00
  0.00000000E+00  0.00000000E+00  0.00000000E+00
  0.00000000E+00  0.00000000E+00  0.00000000E+00
  0.00000000E+00  0.00000000E+00  0.00000000E+00
  0.00000000E+00  0.00000000E+00  0.00000000E+00
  0.00000000E+00  0.00000000E+00  0.00000000E+00
  0.00000000E+00  0.00000000E+00  0.00000000E+00
  0.00000000E+00  0.00000000E+00  0.00000000E+00
  0.00000000E+00  0.00000000E+00  0.00000000E+00
  0.00000000E+00  0.00000000E+00  0.00000000E+00
  0.00000000E+00  0.00000000E+00  0.00000000E+00
  0.00000000E+00  0.00000000E+00  0.00000000E+00
