generated by pypospack
   4.98831
  1.400236   0.006506  -0.000456
  0.009721   2.066948   0.006649
 -0.000608   0.006659   2.062886
 Ta Hf Nb Zr
 11 13 3 9
Direct
  0.754612   0.848297   0.194556
  0.215950   0.169741   0.505224
  0.036050   0.335844   0.333829
  0.247481   0.501315   0.824819
  0.252721   0.833242   0.170623
  0.484313   0.333584   0.665371
  0.243160   0.497302   0.503545
  0.499836   0.673567   0.326141
  0.477810   0.635234   0.656171
  0.018774   0.653755   0.661155
  0.014384   0.994606   0.330972
  0.485132   0.318399   0.990954
  0.746058   0.486348   0.176651
  0.266241   0.815752   0.825908
  0.745829   0.829575   0.498407
  0.750686   0.498193   0.825151
  0.268775   0.510984   0.160750
  0.007503   0.670393   0.328425
  0.772862   0.175068   0.499393
  0.464703   0.320622   0.342008
  0.528091   0.685249   0.018573
  0.495035   0.026512   0.671856
 -0.003212   0.004347   0.683254
  0.731192   0.810248   0.801159
  0.232414   0.156495   0.170401
  0.751237   0.191385   0.820601
  0.240497   0.174174   0.824840
  0.501278   0.002831  -0.000061
  0.753182   0.495733   0.495978
  0.993477   0.997517   0.000180
  0.018345   0.328819   0.994448
  0.483556   0.007008   0.334599
  0.261675   0.828452   0.508187
  0.766286   0.174824   0.182283
  0.986193   0.679976   0.003811
  0.007875   0.334623   0.669836
