generated by pypospack                  
   4.98831000000000     
     1.3934963852835085    0.0014612821150806   -0.0074459617832758
     0.0021804438577798    2.0624057008217518    0.0024686333135220
    -0.0110076572125139    0.0024904779548209    2.0549919762877029
   Nb   Zr   Ta   Hf
     5    11    12     8
Direct
  0.9993463550869622  0.6730038836601399  0.6926372908884375
  0.2639352137974101  0.8340705933635010  0.8350190533846326
  0.5161390497745412  0.3421524454661812  0.9991609386251696
  0.7357568364514249  0.5083977869202290  0.8337127295622458
  0.5006406944259587  0.9889455818813804  0.9995955745514743
  0.0124391013116246  0.3535688815732467  0.3292092504739182
  0.4904939601611846  0.6633871724384950  0.3260186096805917
  0.2233594623724209  0.1533246407933274  0.4952745990421407
  0.2786044133999029  0.1674412575651102  0.8340603715396921
  0.9969875316684678  0.6688776768037904  0.0042894766030345
  0.4998707553343005  0.3381100139760926  0.3423052418596343
  0.7748014805704173  0.5228634248105037  0.5091837011304842
  0.7597743393473516  0.8254257251143705  0.5092123460755349
  0.2553380887496720  0.4971115084232692  0.8334469811541080
  0.2520130646423316  0.1624129527498133  0.1652515217527248
  0.2462102504215896  0.8260038629206398  0.5111492418538266
  0.7298145076879516  0.8327126893733642  0.8347064468730672
  0.7351086263744043  0.8367767624870265  0.1570378368515724
  0.9896844434526041  0.9785377430381360  0.3159682924548276
  0.2775463755574420  0.4927566533124789  0.1441277131926376
  0.2652514840926619  0.8433917493202271  0.1572852872881639
  0.5155711573275336 -0.0000150437371024  0.6633183604774718
  0.7294743356540435  0.4966355522556091  0.1576085749892490
  0.7801546465940724  0.1532571298024658  0.4860915177965213
  0.5035796102501316  0.6688844920768798  0.0002699171224926
  0.7113005681414413  0.1606406463284148  0.8414743973780099
  0.5008916442550024  0.6677981612606630  0.6812801538737862
  0.2345777272065291  0.5191051970639636  0.5223693141216470
  0.9923018983090653  0.9985033613051369  0.9951738465448592
  0.9795402322929820  0.3254958502286723  0.6721930497383332
  0.7485732238700998  0.1666927442258048  0.1690883801256292
  0.9822222168728454  0.0046235083699624  0.6878179812776813
  0.0132848707417530  0.6676734971801748  0.3113816456676932
  0.5115707141508633  0.9945015671080132  0.3400185020808659
  0.5146084472581129  0.3334465260173041  0.6514784902573352
  0.9792266723949141  0.3334908045227180  0.9917883637105004
 
  0.00000000E+00  0.00000000E+00  0.00000000E+00
  0.00000000E+00  0.00000000E+00  0.00000000E+00
  0.00000000E+00  0.00000000E+00  0.00000000E+00
  0.00000000E+00  0.00000000E+00  0.00000000E+00
  0.00000000E+00  0.00000000E+00  0.00000000E+00
  0.00000000E+00  0.00000000E+00  0.00000000E+00
  0.00000000E+00  0.00000000E+00  0.00000000E+00
  0.00000000E+00  0.00000000E+00  0.00000000E+00
  0.00000000E+00  0.00000000E+00  0.00000000E+00
  0.00000000E+00  0.00000000E+00  0.00000000E+00
  0.00000000E+00  0.00000000E+00  0.00000000E+00
  0.00000000E+00  0.00000000E+00  0.00000000E+00
  0.00000000E+00  0.00000000E+00  0.00000000E+00
  0.00000000E+00  0.00000000E+00  0.00000000E+00
  0.00000000E+00  0.00000000E+00  0.00000000E+00
  0.00000000E+00  0.00000000E+00  0.00000000E+00
  0.00000000E+00  0.00000000E+00  0.00000000E+00
  0.00000000E+00  0.00000000E+00  0.00000000E+00
  0.00000000E+00  0.00000000E+00  0.00000000E+00
  0.00000000E+00  0.00000000E+00  0.00000000E+00
  0.00000000E+00  0.00000000E+00  0.00000000E+00
  0.00000000E+00  0.00000000E+00  0.00000000E+00
  0.00000000E+00  0.00000000E+00  0.00000000E+00
  0.00000000E+00  0.00000000E+00  0.00000000E+00
  0.00000000E+00  0.00000000E+00  0.00000000E+00
  0.00000000E+00  0.00000000E+00  0.00000000E+00
  0.00000000E+00  0.00000000E+00  0.00000000E+00
  0.00000000E+00  0.00000000E+00  0.00000000E+00
  0.00000000E+00  0.00000000E+00  0.00000000E+00
  0.00000000E+00  0.00000000E+00  0.00000000E+00
  0.00000000E+00  0.00000000E+00  0.00000000E+00
  0.00000000E+00  0.00000000E+00  0.00000000E+00
  0.00000000E+00  0.00000000E+00  0.00000000E+00
  0.00000000E+00  0.00000000E+00  0.00000000E+00
  0.00000000E+00  0.00000000E+00  0.00000000E+00
  0.00000000E+00  0.00000000E+00  0.00000000E+00
