generated by pypospack
   4.98831
  1.396048  -0.003361   0.000315
 -0.004873   2.056787   0.005860
  0.000570   0.005765   2.045206
 Nb Hf Zr Ta
 5 12 7 12
Direct
  0.256508   0.166092   0.159017
  0.975732   0.678916   0.001590
  0.739883   0.183229   0.833834
  0.743399   0.834274   0.172353
  0.262070   0.167801   0.830382
  0.761956   0.492460   0.171465
  0.251632   0.828283   0.843031
  0.724012   0.828438   0.496044
  0.747380   0.488032   0.833150
  0.226614   0.506915   0.155393
  0.016882   0.680702   0.338805
  0.763327   0.178665   0.491870
  0.462628   0.336359   0.332845
  0.015961   0.996759   0.330675
  0.745042   0.179275   0.174720
  0.516237   0.667019   0.004314
  0.511597   0.012747   0.680709
  0.742673   0.496547   0.495975
  0.989015   0.000072   0.001244
  0.017215   0.317303   0.988176
  0.003144   0.661063   0.663003
  0.477636   0.002377   0.322674
  0.992228   0.005783   0.671619
  0.286942   0.825051   0.511052
  0.234053   0.175025   0.509411
  0.035925   0.332193   0.341079
  0.018369   0.335970   0.668066
  0.260165   0.496324   0.828253
  0.250333   0.826258   0.149214
  0.486064   0.327782   0.666999
  0.483907   0.325117   0.994219
  0.262206   0.500571   0.509104
  0.486558   0.665255   0.314080
  0.504737   0.000195  -0.000436
  0.501652   0.655221   0.681716
  0.746309   0.825934   0.834352
