generated by pypospack                  
   4.98831000000000     
     1.4002359304089866    0.0065058288983801   -0.0004564948066565
     0.0097212177141116    2.0669483467882217    0.0066488942437072
    -0.0006080102213523    0.0066593671957027    2.0628860898255277
   Ta   Zr   Hf   Nb
    11     8    13     4
Direct
  0.7546121032867645  0.8482965452710729  0.1945559222259917
  0.2159497751979353  0.1697410226020951  0.5052244977679544
  0.0360498899050807  0.3358439076343004  0.3338294176028846
  0.2474805086219651  0.5013154110838924  0.8248185884479898
  0.2527213938978399  0.8332422845568693  0.1706230381711918
  0.4843132887866229  0.3335842379562220  0.6653714397220254
  0.2431598046195249  0.4973019115521319  0.5035449479599333
  0.4998360744697436  0.6735669532022422  0.3261408472864749
  0.4778097513659987  0.6352342940615220  0.6561709110527445
  0.0187740622185723  0.6537551981878814  0.6611548697296646
  0.0143841703583404  0.9946058226207670  0.3309717512246511
  0.5012781358753122  0.0028308777920386 -0.0000610194665990
  0.7531824530292794  0.4957328906883287  0.4959781944400680
  0.9934769977923184  0.9975169645281472  0.0001804575266988
  0.0183453226677674  0.3288186261547281  0.9944483468837293
  0.4835558419776732  0.0070075075086046  0.3345988567738043
  0.2616750002003764  0.8284520551610620  0.5081869589271781
  0.7662864954539530  0.1748235967793591  0.1822831808740597
  0.9861926493465527  0.6799757020424262  0.0038112840395089
  0.4851319110877417  0.3183990438858056  0.9909536237050023
  0.7460578226102884  0.4863480621484759  0.1766509811623607
  0.2662410138755043  0.8157516255841475  0.8259079557156567
  0.7458289575185134  0.8295748727901282  0.4984072187011304
  0.7506863194912836  0.4981930100923179  0.8251514815361589
  0.2687749207122075  0.5109837894826942  0.1607495542988031
  0.0075029331691327  0.6703932204168799  0.3284251496428802
  0.7728622571264075  0.1750683576079027  0.4993929050630297
  0.4647032501894816  0.3206222510883316  0.3420075293816970
  0.5280910822770979  0.6852491246903655  0.0185734210081723
  0.4950354022409898  0.0265117806064607  0.6718555981253099
 -0.0032123875041449  0.0043467951331499  0.6832537995243335
  0.7311924750138173  0.8102476858271319  0.8011585891292063
  0.0078749836726037  0.3346234938891184  0.6698355172408025
  0.2324142771336721  0.1564953833988782  0.1704010528463624
  0.7512374674771720  0.1913850818341973  0.8206010007246621
  0.2404965948366096  0.1741736121403202  0.8248401310044851
 
  0.00000000E+00  0.00000000E+00  0.00000000E+00
  0.00000000E+00  0.00000000E+00  0.00000000E+00
  0.00000000E+00  0.00000000E+00  0.00000000E+00
  0.00000000E+00  0.00000000E+00  0.00000000E+00
  0.00000000E+00  0.00000000E+00  0.00000000E+00
  0.00000000E+00  0.00000000E+00  0.00000000E+00
  0.00000000E+00  0.00000000E+00  0.00000000E+00
  0.00000000E+00  0.00000000E+00  0.00000000E+00
  0.00000000E+00  0.00000000E+00  0.00000000E+00
  0.00000000E+00  0.00000000E+00  0.00000000E+00
  0.00000000E+00  0.00000000E+00  0.00000000E+00
  0.00000000E+00  0.00000000E+00  0.00000000E+00
  0.00000000E+00  0.00000000E+00  0.00000000E+00
  0.00000000E+00  0.00000000E+00  0.00000000E+00
  0.00000000E+00  0.00000000E+00  0.00000000E+00
  0.00000000E+00  0.00000000E+00  0.00000000E+00
  0.00000000E+00  0.00000000E+00  0.00000000E+00
  0.00000000E+00  0.00000000E+00  0.00000000E+00
  0.00000000E+00  0.00000000E+00  0.00000000E+00
  0.00000000E+00  0.00000000E+00  0.00000000E+00
  0.00000000E+00  0.00000000E+00  0.00000000E+00
  0.00000000E+00  0.00000000E+00  0.00000000E+00
  0.00000000E+00  0.00000000E+00  0.00000000E+00
  0.00000000E+00  0.00000000E+00  0.00000000E+00
  0.00000000E+00  0.00000000E+00  0.00000000E+00
  0.00000000E+00  0.00000000E+00  0.00000000E+00
  0.00000000E+00  0.00000000E+00  0.00000000E+00
  0.00000000E+00  0.00000000E+00  0.00000000E+00
  0.00000000E+00  0.00000000E+00  0.00000000E+00
  0.00000000E+00  0.00000000E+00  0.00000000E+00
  0.00000000E+00  0.00000000E+00  0.00000000E+00
  0.00000000E+00  0.00000000E+00  0.00000000E+00
  0.00000000E+00  0.00000000E+00  0.00000000E+00
  0.00000000E+00  0.00000000E+00  0.00000000E+00
  0.00000000E+00  0.00000000E+00  0.00000000E+00
  0.00000000E+00  0.00000000E+00  0.00000000E+00
