generated by pypospack
   4.98831
  1.400060   0.004195  -0.000506
  0.006151   2.051123   0.001830
 -0.000751   0.001688   2.053193
 Ta Hf Zr Nb
 6 9 11 10
Direct
  0.729681   0.496498   0.176190
  0.532615   0.667765   0.010456
  0.042447   0.005155   0.663192
  0.517181   0.669569   0.338248
  0.761418   0.497998   0.489303
  0.981404   0.668318   0.325844
  0.233867   0.166895   0.489614
  0.264564   0.505481   0.168657
  0.006142   0.336428   0.002501
  0.968994   0.661797   0.011178
  0.258099   0.826069   0.168927
  0.468220   0.002860   0.661567
  0.764309   0.839035   0.503548
  0.025320   0.653447   0.662823
  0.251293   0.821596   0.850753
  0.258028   0.168898   0.179466
  0.986297   0.005651   0.008451
  0.763713   0.163828   0.502158
  0.760885   0.171423   0.821026
  0.514677   0.998641   0.996116
  0.726925   0.177656   0.177115
  0.741119   0.490272   0.828213
  0.488455   0.663556   0.652920
  0.480254   0.330446   0.660866
  0.765422   0.838506   0.813692
  0.238253   0.495133   0.476385
  0.004622   0.989921   0.331994
  0.491269   0.989762   0.345949
  0.740301   0.832546   0.185490
  0.505905   0.339478   0.346944
  0.264299   0.502657   0.848525
  0.984987   0.342257   0.324848
  0.018825   0.337867   0.670822
  0.241856   0.835490   0.484061
  0.479797   0.334751   0.989073
  0.238557   0.172354   0.833079
