generated by pypospack
   4.98831
  1.399929  -0.000186   0.009402
 -0.000296   2.056428   0.002511
  0.013813   0.002314   2.047236
 Ta Zr Nb Hf
 8 9 10 9
Direct
  0.741151   0.496512   0.824792
  0.731758   0.498146   0.173782
  0.539133   0.664624   0.010320
  0.035735   0.992298   0.671910
  0.516698   0.668790   0.339613
  0.752153   0.507252   0.497012
  0.983974   0.667183   0.329167
  0.482616   0.658564   0.651927
  0.248618   0.172209   0.184728
  0.996219   0.000227   0.004845
  0.766027   0.162711   0.500223
  0.761338   0.169006   0.821945
  0.500467   0.010420   0.999608
  0.731994   0.176842   0.176037
  0.483855   0.330684   0.662880
  0.745275   0.833690   0.816719
  0.242118   0.492824   0.484645
  0.992283   0.981588   0.322506
  0.498214   0.987010   0.343883
  0.741604   0.831854   0.182261
  0.514228   0.345635   0.344630
  0.266327   0.503439   0.840110
  0.975280   0.353975   0.321045
  0.017516   0.340250   0.680138
  0.249985   0.833529   0.487502
  0.483341   0.330177   0.991132
  0.235268   0.171506   0.830119
  0.225953   0.168718   0.487258
  0.266505   0.506060   0.167717
  0.007654   0.337973   0.998498
  0.975759   0.662909   0.007504
  0.262134   0.823290   0.169155
  0.467541   0.004176   0.659458
  0.756074   0.833576   0.505258
  0.031471   0.665427   0.663643
  0.273731   0.816935   0.848030
