generated by pypospack                  
   4.98831000000000     
     1.4061030235019385   -0.0012242105667544    0.0022463139139667
    -0.0018655127792553    2.0809700961832980    0.0029459747427112
     0.0033036105025824    0.0029233047124045    2.0397869826003707
   Zr   Hf   Ta   Nb
    13     8     5    10
Direct
  0.2546573097668288  0.1688510690919488  0.1668294048361940
  0.9798113231450336  0.9941669688070651  0.0160443981161028
  0.7704569739006254  0.1647954794604453  0.5052750941602019
  0.2531912542023489  0.1702616362873532  0.8456614560223940
  0.7661605873482461  0.1663795934656090  0.8211872743031631
  0.2593763534371567  0.5027876468264428  0.1736968200642032
  0.5229470106847883  0.9833916226027515  0.9982933312094071
  0.7282007053003876  0.1798982322176065  0.1767464262736953
  0.4888102858216126  0.9969177760577594  0.3472487897415110
  0.7447727270475587  0.4992904249178227  0.8209828392352457
  0.4753379105344562  0.6693770743946291  0.6620050825261622
  0.4791227136723583  0.3308458234764748  0.6525907330566645
  0.7581486658540202  0.8348104565306779  0.8143015156531831
  0.9867587869078128  0.3462978366323761  0.0058820344066832
  0.9989435727290319  0.6611651553053806 -0.0013163073219811
  0.2514654122193838  0.8263531526617478  0.1690056211764298
  0.4687655795893909  0.9979622645962030  0.6594632514195399
  0.7687987657673022  0.8328569246678651  0.5051680126526655
  0.2273824642411919  0.4994654863298302  0.4794476133682325
  0.0389612211773179  0.6672091667321222  0.6803100820197994
  0.7642340360235180  0.5016577957135177  0.4940194254043396
  0.7316584370819127  0.5020410601820738  0.1758413222133151
  0.5058045403689244  0.6670523718797676  0.0019823864274637
 -0.0040910530995581  0.9964300388514318  0.3277847624233273
  0.0424098505849052  0.9939456530027045  0.6605867689656727
  0.5083016495629542  0.6743481021224645  0.3361148017375694
  0.7425190409560247  0.8199155597263263  0.1791868505802983
  0.2208946288394152  0.1718236726144511  0.4909139362480185
  0.4941529599209745  0.3309392768740834  0.3484093587153229
  0.2721132701024784  0.4933138440649740  0.8457750892554817
  0.9891755217228648  0.3325354036862407  0.3177591729189926
  0.0316155000731200  0.3365147983116918  0.6720763645546681
  0.9792478789499088  0.6722993052250025  0.3186510377968750
  0.2258833675319130  0.8288761151773696  0.4836971022758767
  0.2600282007684023  0.8349427880829307  0.8506067825330200
  0.5139895472653796  0.3502834234228657  0.9977703650302576
 
  0.00000000E+00  0.00000000E+00  0.00000000E+00
  0.00000000E+00  0.00000000E+00  0.00000000E+00
  0.00000000E+00  0.00000000E+00  0.00000000E+00
  0.00000000E+00  0.00000000E+00  0.00000000E+00
  0.00000000E+00  0.00000000E+00  0.00000000E+00
  0.00000000E+00  0.00000000E+00  0.00000000E+00
  0.00000000E+00  0.00000000E+00  0.00000000E+00
  0.00000000E+00  0.00000000E+00  0.00000000E+00
  0.00000000E+00  0.00000000E+00  0.00000000E+00
  0.00000000E+00  0.00000000E+00  0.00000000E+00
  0.00000000E+00  0.00000000E+00  0.00000000E+00
  0.00000000E+00  0.00000000E+00  0.00000000E+00
  0.00000000E+00  0.00000000E+00  0.00000000E+00
  0.00000000E+00  0.00000000E+00  0.00000000E+00
  0.00000000E+00  0.00000000E+00  0.00000000E+00
  0.00000000E+00  0.00000000E+00  0.00000000E+00
  0.00000000E+00  0.00000000E+00  0.00000000E+00
  0.00000000E+00  0.00000000E+00  0.00000000E+00
  0.00000000E+00  0.00000000E+00  0.00000000E+00
  0.00000000E+00  0.00000000E+00  0.00000000E+00
  0.00000000E+00  0.00000000E+00  0.00000000E+00
  0.00000000E+00  0.00000000E+00  0.00000000E+00
  0.00000000E+00  0.00000000E+00  0.00000000E+00
  0.00000000E+00  0.00000000E+00  0.00000000E+00
  0.00000000E+00  0.00000000E+00  0.00000000E+00
  0.00000000E+00  0.00000000E+00  0.00000000E+00
  0.00000000E+00  0.00000000E+00  0.00000000E+00
  0.00000000E+00  0.00000000E+00  0.00000000E+00
  0.00000000E+00  0.00000000E+00  0.00000000E+00
  0.00000000E+00  0.00000000E+00  0.00000000E+00
  0.00000000E+00  0.00000000E+00  0.00000000E+00
  0.00000000E+00  0.00000000E+00  0.00000000E+00
  0.00000000E+00  0.00000000E+00  0.00000000E+00
  0.00000000E+00  0.00000000E+00  0.00000000E+00
  0.00000000E+00  0.00000000E+00  0.00000000E+00
  0.00000000E+00  0.00000000E+00  0.00000000E+00
