generated by pypospack
   4.98831
  1.401620   0.000010   0.002719
 -0.000034   2.081912   0.004511
  0.003996   0.004471   2.031545
 Zr Hf Ta Nb
 13 8 5 10
Direct
  0.255647   0.166927   0.165892
  0.979169   0.990573   0.003738
  0.772677   0.167341   0.502560
  0.253875   0.168608   0.844874
  0.764229   0.170450   0.821908
  0.260634   0.505515   0.172387
  0.528320   0.982025   0.991747
  0.731255   0.176571   0.175323
  0.487285   0.997512   0.350921
  0.743963   0.492781   0.820926
  0.480829   0.671429   0.668391
  0.476095   0.329271   0.649265
  0.755618   0.831671   0.815238
  0.990128   0.346208   0.009263
  0.990975   0.664839   0.997196
  0.253947   0.828968   0.167638
  0.478589   0.994790   0.663481
  0.770083   0.831656   0.505942
  0.228395   0.502854   0.480921
  0.028628   0.670323   0.683284
  0.763078   0.501288   0.492280
  0.730996   0.503132   0.175882
  0.513213   0.668865   0.997499
  0.000722   0.996783   0.330574
  0.030930   0.989298   0.669876
  0.507780   0.674666   0.334959
  0.742563   0.822339   0.179492
  0.218542   0.168701   0.493507
  0.493079   0.331292   0.346328
  0.270790   0.495127   0.846066
  0.991716   0.333203   0.316408
  0.032265   0.336667   0.670136
  0.981555   0.673228   0.317996
  0.223021   0.829417   0.487739
  0.257994   0.835396   0.851075
  0.511422   0.350289  -0.000713
