generated by pypospack
   4.94975
  1.614447  -0.004620   0.002853
 -0.004512   1.659155  -0.007647
  0.002787  -0.007678   1.645526
 Au Pt
 17 15
Direct
  0.749071   0.752763   0.001722
  0.998205   0.999890   0.999239
  0.251556   0.248975   0.000617
  0.251829   0.998528   0.249157
  0.999339   0.247945   0.251287
  0.001833   0.247575   0.750746
  0.249477   0.500882   0.250112
  0.002530   0.500636   0.498061
  0.249263   0.501127   0.749119
  0.000630   0.752080   0.749945
  0.750847   0.248523   0.500171
  0.500007   0.249027   0.749120
  0.499861   0.499978   0.002470
  0.499383   0.751341   0.250622
  0.748445   0.750907   0.498256
  0.749968   0.498748   0.751572
  0.497305   0.752010   0.747768
  0.002550   0.994936   0.500200
  0.254690   0.243901   0.498602
  0.253518   0.997192   0.746934
  0.996823   0.503922   0.006678
  0.247090   0.753482   0.000237
  0.997815   0.750966   0.249863
  0.249680   0.753757   0.497994
  0.503120   0.003398   0.999009
  0.747852   0.248316   0.004767
  0.746981   0.001453   0.252290
  0.506306   0.247735   0.252962
  0.498974   0.001876   0.500246
  0.747811   0.003634   0.749324
  0.750502   0.497856   0.248114
  0.496738   0.496646   0.492798
