generated by pypospack                  
   4.98831000000000     
     1.3843997716675478   -0.0034677639578292    0.0086373259472205
    -0.0051150115211235    2.0520007549808610   -0.0015099124794972
     0.0127505475681910   -0.0017239212358434    2.0206843760042270
   Hf   Ta   Nb   Zr
     7     9    12     8
Direct
  0.2272585020836163  0.1684388581780149  0.4892272713380562
  0.0031070861763493  0.3428235006735090 -0.0000590993797591
  0.9972729778586147  0.6624727817911874  0.0059969394824674
  0.2678416668504438  0.8283902218621878  0.1726626651379511
  0.4752849511310149  0.0020093930028102  0.6628959836739186
  0.7601676365727509  0.8288462601111728  0.5047898926692053
  0.0258249209326860  0.6652176687748313  0.6752558477294525
  0.2626230245661474  0.5060264933912276  0.1726008450790226
  0.7371565425816236  0.5031639155420421  0.8345068960570604
  0.7305793801644649  0.5016273546368657  0.1680711466087117
  0.0347491598026636  0.9888524263065089  0.6755277044488478
  0.5128888801675598  0.6642378947930947  0.3383414258398798
  0.7555644087508931  0.5074535000270121  0.4956520401317241
  0.9868883926238347  0.6645424645802129  0.3210222772874452
  0.4884136808527009  0.6586688171697009  0.6648660130684785
  0.4842960736200518  0.9992727668457726  0.9887729630147143
  0.2684526836206134  0.8304173312571222  0.8421948611116863
  0.5061730648808995  0.6623513196054125  0.0000970455252474
  0.9909637899335028  0.9850850501588779  0.3222549698505691
  0.5023489780802303  0.9887531677850279  0.3498472476230626
  0.7336214089326429  0.8324703431756119  0.1756032611627816
  0.5114167527475739  0.3462217233097883  0.3389840497186006
  0.2672683707376310  0.5006503138470151  0.8395371475714702
  0.9829740964898637  0.3484319538309148  0.3115289597921212
  0.0045816703527086  0.3458304230017055  0.6837392430383774
  0.2471962978383903  0.8322702196659173  0.4886257566469564
  0.4892319924869132  0.3411409984907596  0.9934288533544260
  0.2492662828201712  0.1685467635242123  0.8355590443791432
  0.2579156525251553  0.1690770776886086  0.1759834524358551
  0.0070733575941794  0.9966898288511615  0.0010831806721355
  0.7725551276124444  0.1659514605326814  0.4991954194325263
  0.7525571063048186  0.1673534818975852  0.8295584665029390
  0.7268036060249541  0.1665999512674895  0.1669012218988417
  0.4980152950889747  0.3356144317808032  0.6636901915317165
  0.7427215389610948  0.8315930493440885  0.8241486133887981
  0.2389396422318385  0.4929167932990609  0.4879092021755741
 
  0.00000000E+00  0.00000000E+00  0.00000000E+00
  0.00000000E+00  0.00000000E+00  0.00000000E+00
  0.00000000E+00  0.00000000E+00  0.00000000E+00
  0.00000000E+00  0.00000000E+00  0.00000000E+00
  0.00000000E+00  0.00000000E+00  0.00000000E+00
  0.00000000E+00  0.00000000E+00  0.00000000E+00
  0.00000000E+00  0.00000000E+00  0.00000000E+00
  0.00000000E+00  0.00000000E+00  0.00000000E+00
  0.00000000E+00  0.00000000E+00  0.00000000E+00
  0.00000000E+00  0.00000000E+00  0.00000000E+00
  0.00000000E+00  0.00000000E+00  0.00000000E+00
  0.00000000E+00  0.00000000E+00  0.00000000E+00
  0.00000000E+00  0.00000000E+00  0.00000000E+00
  0.00000000E+00  0.00000000E+00  0.00000000E+00
  0.00000000E+00  0.00000000E+00  0.00000000E+00
  0.00000000E+00  0.00000000E+00  0.00000000E+00
  0.00000000E+00  0.00000000E+00  0.00000000E+00
  0.00000000E+00  0.00000000E+00  0.00000000E+00
  0.00000000E+00  0.00000000E+00  0.00000000E+00
  0.00000000E+00  0.00000000E+00  0.00000000E+00
  0.00000000E+00  0.00000000E+00  0.00000000E+00
  0.00000000E+00  0.00000000E+00  0.00000000E+00
  0.00000000E+00  0.00000000E+00  0.00000000E+00
  0.00000000E+00  0.00000000E+00  0.00000000E+00
  0.00000000E+00  0.00000000E+00  0.00000000E+00
  0.00000000E+00  0.00000000E+00  0.00000000E+00
  0.00000000E+00  0.00000000E+00  0.00000000E+00
  0.00000000E+00  0.00000000E+00  0.00000000E+00
  0.00000000E+00  0.00000000E+00  0.00000000E+00
  0.00000000E+00  0.00000000E+00  0.00000000E+00
  0.00000000E+00  0.00000000E+00  0.00000000E+00
  0.00000000E+00  0.00000000E+00  0.00000000E+00
  0.00000000E+00  0.00000000E+00  0.00000000E+00
  0.00000000E+00  0.00000000E+00  0.00000000E+00
  0.00000000E+00  0.00000000E+00  0.00000000E+00
  0.00000000E+00  0.00000000E+00  0.00000000E+00
