generated by pypospack
   4.98831
  1.392644  -0.002542   0.010121
 -0.003786   2.049874  -0.000184
  0.014976  -0.000401   2.023814
 Hf Ta Nb Zr
 7 9 12 8
Direct
  0.226829   0.169312   0.488849
  0.997425   0.341696   0.997951
  0.990243   0.664031   0.005181
  0.267076   0.826645   0.171810
  0.471514   0.001474   0.663235
  0.760618   0.831626   0.506314
  0.027231   0.664961   0.674345
  0.267405   0.503370   0.171480
  0.737937   0.502893   0.832271
  0.726899   0.501556   0.168025
  0.038110   0.989009   0.675641
  0.520494   0.667479   0.341916
  0.757163   0.507720   0.497955
  0.980436   0.666506   0.322910
  0.488972   0.659080   0.664649
  0.481947  -0.000194   0.988814
  0.267898   0.829701   0.843560
  0.517258   0.665318  -0.002933
  0.991611   0.985022   0.321592
  0.499780   0.988408   0.348550
  0.734181   0.833117   0.175675
  0.520505   0.342079   0.346736
  0.267315   0.500556   0.840807
  0.972280   0.347324   0.313663
  0.005847   0.347086   0.683278
  0.248603   0.831418   0.488195
  0.494117   0.337612   0.987582
  0.248069   0.168755   0.835623
  0.256343   0.169563   0.176120
  0.007919   0.996797   0.002043
  0.771471   0.163350   0.501584
  0.752837   0.166460   0.827064
  0.723683   0.165882   0.166983
  0.495465   0.336771   0.663929
  0.745071   0.834132   0.822481
  0.239442   0.493495   0.486123
