generated by pypospack
   4.98831
  1.411562   0.004056   0.014727
  0.006057   2.063039  -0.000527
  0.021426  -0.000628   2.068024
 Zr Hf Ta Nb
 13 9 10 4
Direct
  0.723835   0.162381   0.829497
  0.511567   0.336626   0.339946
  0.019404   0.322980   0.675622
  0.261928   0.494856   0.154568
  0.970588   0.339188   0.324317
  0.495440   0.666625   0.336510
  0.213395   0.158638   0.475882
  0.782353   0.513269   0.524129
  0.774269   0.834872   0.513127
  0.263260   0.498434   0.844591
  0.258975   0.163267   0.166188
  0.748558   0.825075   0.832811
  0.291420   0.172016   0.855029
  0.515381   0.993778   0.335848
  0.476132  -0.001137   0.650558
  0.000068  -0.001446  -0.000867
  0.025487  -0.000317   0.683215
 -0.004993   0.666892   0.316868
  0.488143   0.330806   0.644177
  0.977393   0.324389   0.000066
  0.751977   0.511600   0.835947
  0.464031   0.674202   0.653560
  0.498312   0.676270   0.008953
  0.003897   0.676550   0.011692
  0.745439   0.830218   0.156207
  0.971073   0.994154   0.318516
  0.248978   0.837859   0.167953
  0.770850   0.154681   0.501241
  0.218633   0.504697   0.501084
  0.041617   0.676898   0.673868
  0.738244   0.512234   0.148550
  0.221305   0.837364   0.482067
  0.733441   0.160119   0.164064
  0.259120   0.828266   0.849493
  0.537373   0.336783   0.011555
  0.503091   0.986921   0.013160
