generated by pypospack                  
   4.98831000000000     
     1.3816779750157189   -0.0022722106051883   -0.0008659282233299
    -0.0032638681676057    2.0293310600225722   -0.0005343682023947
    -0.0012734706647591   -0.0005666986659329    2.0475697096806766
   Nb   Hf   Zr   Ta
     8     8     7    13
Direct
  0.7599362432026360  0.8361437976500906  0.8277733701331527
  0.2361593261602221  0.5059952409909139  0.4950206654892644
  0.5037222616721002  0.9867323106700396  0.3278807372354912
  0.9978673487840474  0.9940443460347759  0.3303608159825525
 -0.0030931198621380  0.0072087697399315  0.6647247071459949
  0.9818995682161571  0.6619780428003849  0.6634592028842465
  0.0180605206752389  0.3411653525747876  0.3477107678759946
  0.2282197967963527  0.5285702123702370  0.8284856597335398
  0.4886129320095101  0.3398297152947215  0.6665327789516194
  0.5031397661560973  0.9889296282580945  0.0044566778486515
  0.7436034953087811  0.1640686764799814  0.4951075047153010
  0.2523161609159070  0.1660775858387598  0.1802689189988357
  0.0156356156384948  0.3324624937536585  0.6654251353083328
  0.2373128540758153  0.8409561137896002  0.5006984571818637
  0.7574323256080590  0.1606207032931767  0.8333977209300117
  0.5157851188079667  0.6668197973399832  0.6627636737386301
  0.7517962955327149  0.1677905946449647  0.1727757494959676
  0.2400446402506149  0.8337628032121701  0.8259740174419631
  0.7552214036480939  0.4878289127122123  0.1709546104454014
  0.5017061376740914  0.6666398300930791  0.3353465837314948
  0.0272044580399106  0.3368271338994703  0.9863291893671604
  0.5016619584459271  0.6695739525147495  0.0010475341692132
  0.4771033939039585  0.3402280517537784  0.9836859061078101
  0.7650454807016218  0.8421623996828674  0.4990070388167408
  0.2385938612735646  0.4980282739360805  0.1753974878839815
  0.9926973650828032  0.6691303421613983  0.0050347320896383
  0.2270308148705657  0.8364851049213423  0.1739909648023188
  0.7616921991193074  0.4938764491507065  0.4948540657245658
  0.7722212514234361  0.8347858804548762  0.1723764033729584
 -0.0014569775245460  0.9916717951478188  0.0044379452990468
  0.7639584244115089  0.5045413879258273  0.8330897015538015
  0.9961742384351477  0.6656341903746085  0.3315950593314500
  0.2596365777342284  0.1563414721684697  0.4941327929112307
  0.2436462878013539  0.1422572875509794  0.8254123448834539
  0.5069691364760627 -0.0054551135082188  0.6679513137065237
  0.4824428385344085  0.3462964643236856  0.3525337647117773
 
  0.00000000E+00  0.00000000E+00  0.00000000E+00
  0.00000000E+00  0.00000000E+00  0.00000000E+00
  0.00000000E+00  0.00000000E+00  0.00000000E+00
  0.00000000E+00  0.00000000E+00  0.00000000E+00
  0.00000000E+00  0.00000000E+00  0.00000000E+00
  0.00000000E+00  0.00000000E+00  0.00000000E+00
  0.00000000E+00  0.00000000E+00  0.00000000E+00
  0.00000000E+00  0.00000000E+00  0.00000000E+00
  0.00000000E+00  0.00000000E+00  0.00000000E+00
  0.00000000E+00  0.00000000E+00  0.00000000E+00
  0.00000000E+00  0.00000000E+00  0.00000000E+00
  0.00000000E+00  0.00000000E+00  0.00000000E+00
  0.00000000E+00  0.00000000E+00  0.00000000E+00
  0.00000000E+00  0.00000000E+00  0.00000000E+00
  0.00000000E+00  0.00000000E+00  0.00000000E+00
  0.00000000E+00  0.00000000E+00  0.00000000E+00
  0.00000000E+00  0.00000000E+00  0.00000000E+00
  0.00000000E+00  0.00000000E+00  0.00000000E+00
  0.00000000E+00  0.00000000E+00  0.00000000E+00
  0.00000000E+00  0.00000000E+00  0.00000000E+00
  0.00000000E+00  0.00000000E+00  0.00000000E+00
  0.00000000E+00  0.00000000E+00  0.00000000E+00
  0.00000000E+00  0.00000000E+00  0.00000000E+00
  0.00000000E+00  0.00000000E+00  0.00000000E+00
  0.00000000E+00  0.00000000E+00  0.00000000E+00
  0.00000000E+00  0.00000000E+00  0.00000000E+00
  0.00000000E+00  0.00000000E+00  0.00000000E+00
  0.00000000E+00  0.00000000E+00  0.00000000E+00
  0.00000000E+00  0.00000000E+00  0.00000000E+00
  0.00000000E+00  0.00000000E+00  0.00000000E+00
  0.00000000E+00  0.00000000E+00  0.00000000E+00
  0.00000000E+00  0.00000000E+00  0.00000000E+00
  0.00000000E+00  0.00000000E+00  0.00000000E+00
  0.00000000E+00  0.00000000E+00  0.00000000E+00
  0.00000000E+00  0.00000000E+00  0.00000000E+00
  0.00000000E+00  0.00000000E+00  0.00000000E+00
