generated by pypospack                  
   4.98831000000000     
     1.3728204017314307   -0.0003031312617551    0.0009012726463820
    -0.0004046356729906    2.0561066121776106    0.0033450038110589
     0.0013993600205648    0.0032764334363406    2.0472437032232742
   Hf   Nb   Ta   Zr
     8     9    11     8
Direct
  0.2577692313555248  0.1687490784279985  0.8248906298268769
  0.2515280871519367  0.5012248629060896  0.1638008506689981
  0.0139238526978008  0.6801307658604094  0.3454620978369952
  0.5047301311317512  0.0036119314358691  0.0117515567271064
  0.7486570166444360  0.1686409498283790  0.5056691629033701
  0.7475370142444598  0.4870040267157121  0.4911067432577790
  0.4889826824508974  0.6840984094433925  0.3425331408525435
  0.4899495768692259  0.6611589282160797  0.6629204609341600
  0.2558027865375063  0.1798192708072828  0.1726428907250708
  0.0039865714659048  0.0026530775791500  0.6673857332640210
  0.2520361264809366  0.4847407968098821  0.4949301585982834
  0.0027070400662951  0.6645939001851646  0.9884254688598014
  0.7402563550255317  0.1851148996940478  0.1827111269088766
  0.4977396913620362  0.9990784196186662  0.6669836331561780
  0.7394640663718013  0.1699188133550432  0.8215639587920904
  0.7658852389901234  0.8115863025398576  0.1578611565813095
  0.7498101455469939  0.4899760499270805  0.8269933841739414
  0.2508656075172906  0.1652178896875577  0.5092275569808991
  0.0191220944120203  0.3224446088913957  0.3361368631505263
  0.0022835013296052  0.3404502055988695  0.6703811770664252
  0.2520708909001111  0.4816564526879072  0.8372420383329452
  0.2477039062230526  0.8563286242281000  0.5198985236892589
  0.4796486029659626  0.3228852112262086  0.3358594541643228
  0.7528519349003046  0.8499065354618489  0.5162737437860547
  0.2470957088193597  0.8441630015752690  0.8325774869319152
  0.2373279260134196  0.8143735939886441  0.1429810306957620
  0.4951640039246804  0.3433050601601278  0.6687292369382235
  0.5051687903986133  0.3278871452662055  0.9973798508785683
  0.9923434840606900  0.0054581145670809  0.0095429099560240
  0.0019614998876266  0.9986389861489241  0.3272552107020970
  0.9881188765009060  0.3248241348125581  0.9985343884917872
  0.0097561750727362  0.6598663378881083  0.6631686482782512
  0.4983984636608478  0.9964050305201019  0.3262595181138118
  0.7494753018114884  0.5004410847723038  0.1729923963468772
  0.5027583710780313  0.6641559636153797  0.9845492487835040
  0.7571102461301081  0.8394955355532934  0.8233775626453406
 
  0.00000000E+00  0.00000000E+00  0.00000000E+00
  0.00000000E+00  0.00000000E+00  0.00000000E+00
  0.00000000E+00  0.00000000E+00  0.00000000E+00
  0.00000000E+00  0.00000000E+00  0.00000000E+00
  0.00000000E+00  0.00000000E+00  0.00000000E+00
  0.00000000E+00  0.00000000E+00  0.00000000E+00
  0.00000000E+00  0.00000000E+00  0.00000000E+00
  0.00000000E+00  0.00000000E+00  0.00000000E+00
  0.00000000E+00  0.00000000E+00  0.00000000E+00
  0.00000000E+00  0.00000000E+00  0.00000000E+00
  0.00000000E+00  0.00000000E+00  0.00000000E+00
  0.00000000E+00  0.00000000E+00  0.00000000E+00
  0.00000000E+00  0.00000000E+00  0.00000000E+00
  0.00000000E+00  0.00000000E+00  0.00000000E+00
  0.00000000E+00  0.00000000E+00  0.00000000E+00
  0.00000000E+00  0.00000000E+00  0.00000000E+00
  0.00000000E+00  0.00000000E+00  0.00000000E+00
  0.00000000E+00  0.00000000E+00  0.00000000E+00
  0.00000000E+00  0.00000000E+00  0.00000000E+00
  0.00000000E+00  0.00000000E+00  0.00000000E+00
  0.00000000E+00  0.00000000E+00  0.00000000E+00
  0.00000000E+00  0.00000000E+00  0.00000000E+00
  0.00000000E+00  0.00000000E+00  0.00000000E+00
  0.00000000E+00  0.00000000E+00  0.00000000E+00
  0.00000000E+00  0.00000000E+00  0.00000000E+00
  0.00000000E+00  0.00000000E+00  0.00000000E+00
  0.00000000E+00  0.00000000E+00  0.00000000E+00
  0.00000000E+00  0.00000000E+00  0.00000000E+00
  0.00000000E+00  0.00000000E+00  0.00000000E+00
  0.00000000E+00  0.00000000E+00  0.00000000E+00
  0.00000000E+00  0.00000000E+00  0.00000000E+00
  0.00000000E+00  0.00000000E+00  0.00000000E+00
  0.00000000E+00  0.00000000E+00  0.00000000E+00
  0.00000000E+00  0.00000000E+00  0.00000000E+00
  0.00000000E+00  0.00000000E+00  0.00000000E+00
  0.00000000E+00  0.00000000E+00  0.00000000E+00
