generated by pypospack                  
   4.98831000000000     
     1.3958815656863799   -0.0003219603691972    0.0022502353767032
    -0.0003059654883882    2.0816779156848177    0.0028069174718991
     0.0033611660248318    0.0028012010796118    2.0512713789875812
   Ta   Hf   Nb   Zr
    10    13     5     8
Direct
  0.7585007605561422  0.8250747952179760  0.1819453931055965
  0.2275369012053087  0.1769678195255569  0.5084990481414680
  0.0360385441282565  0.3339938684468702  0.3393175162279166
  0.2526022530157762  0.4942345137673490  0.8344692836527219
  0.2380868394315122  0.8236041813959984  0.1502850083398479
  0.4867819824865584  0.3324539908564853  0.6666197483489027
  0.4874611813532367  0.3242722680868214  0.9929162337317227
  0.2580487774637553  0.4947313337043960  0.5021813483979828
  0.4912348622879750  0.6666598616581590  0.3154242905454259
  0.4773057375838810  0.6403096962233611  0.6736989728152967
  0.7584728745441173  0.4958458177681431  0.1742720614356528
  0.2494896870012586  0.8214500010722643  0.8446192655964864
  0.7308486001620896  0.8305741873098801  0.4991018677485219
  0.7473553799211949  0.4953505965620769  0.8300361535834907
  0.2414396475490259  0.5024413673421066  0.1561203444240794
  0.0198598042699862  0.6758221631740856  0.3393398780540026
  0.7692906880552387  0.1762361908587864  0.4978666597489993
  0.4670592180851174  0.3282626823746900  0.3366685532591578
  0.0185415050704974  0.9930378509289343  0.3319780242169197
  0.5197200045040984  0.6717248843173382  0.0122283204708852
  0.4934198572824525  0.0239719254132908  0.6758633216971400
  0.0028531121513464  0.0055426657905471  0.6754581720316661
  0.7354071835667022  0.8170220908833241  0.8113258248730398
  0.0097650227543249  0.3359471805418444  0.6707027423617169
  0.2446858998344480  0.1695504738533162  0.1617493701427440
  0.9789916339442714  0.6719862403233012  0.0077961033038618
  0.7398809130030999  0.1893286717912435  0.8258051241277578
  0.2525155313426797  0.1777059708313748  0.8293156194763354
  0.5007270236264969  0.0064981255729588  0.0000567751183383
  0.7466771923535924  0.4959959150496810  0.4961012542452023
  0.9893949000991386  0.0030372727303566 -0.0000306847523618
  0.0094292159843952  0.3227231661457543  0.9904347853843289
  0.0205039860517819  0.6648648415598390  0.6545504651489158
  0.4852254486298537  0.0023627408816628  0.3220618868117783
  0.2977072170091063  0.8275637953797728  0.5087415008383323
  0.7571396136912784  0.1828598526604444  0.1824807673461321
 
  0.00000000E+00  0.00000000E+00  0.00000000E+00
  0.00000000E+00  0.00000000E+00  0.00000000E+00
  0.00000000E+00  0.00000000E+00  0.00000000E+00
  0.00000000E+00  0.00000000E+00  0.00000000E+00
  0.00000000E+00  0.00000000E+00  0.00000000E+00
  0.00000000E+00  0.00000000E+00  0.00000000E+00
  0.00000000E+00  0.00000000E+00  0.00000000E+00
  0.00000000E+00  0.00000000E+00  0.00000000E+00
  0.00000000E+00  0.00000000E+00  0.00000000E+00
  0.00000000E+00  0.00000000E+00  0.00000000E+00
  0.00000000E+00  0.00000000E+00  0.00000000E+00
  0.00000000E+00  0.00000000E+00  0.00000000E+00
  0.00000000E+00  0.00000000E+00  0.00000000E+00
  0.00000000E+00  0.00000000E+00  0.00000000E+00
  0.00000000E+00  0.00000000E+00  0.00000000E+00
  0.00000000E+00  0.00000000E+00  0.00000000E+00
  0.00000000E+00  0.00000000E+00  0.00000000E+00
  0.00000000E+00  0.00000000E+00  0.00000000E+00
  0.00000000E+00  0.00000000E+00  0.00000000E+00
  0.00000000E+00  0.00000000E+00  0.00000000E+00
  0.00000000E+00  0.00000000E+00  0.00000000E+00
  0.00000000E+00  0.00000000E+00  0.00000000E+00
  0.00000000E+00  0.00000000E+00  0.00000000E+00
  0.00000000E+00  0.00000000E+00  0.00000000E+00
  0.00000000E+00  0.00000000E+00  0.00000000E+00
  0.00000000E+00  0.00000000E+00  0.00000000E+00
  0.00000000E+00  0.00000000E+00  0.00000000E+00
  0.00000000E+00  0.00000000E+00  0.00000000E+00
  0.00000000E+00  0.00000000E+00  0.00000000E+00
  0.00000000E+00  0.00000000E+00  0.00000000E+00
  0.00000000E+00  0.00000000E+00  0.00000000E+00
  0.00000000E+00  0.00000000E+00  0.00000000E+00
  0.00000000E+00  0.00000000E+00  0.00000000E+00
  0.00000000E+00  0.00000000E+00  0.00000000E+00
  0.00000000E+00  0.00000000E+00  0.00000000E+00
  0.00000000E+00  0.00000000E+00  0.00000000E+00
