generated by pypospack
   4.98831
  1.366264  -0.005502  -0.004079
 -0.007995   2.021587   0.000435
 -0.006083   0.000366   2.038757
 Hf Nb Zr Ta
 5 10 7 14
Direct
  0.249728   0.834700   0.167269
  0.011222   0.328772   0.663817
  0.720982   0.171391   0.830250
  0.503453   0.670664   0.662812
  0.998341   0.008817   0.661428
  0.989448   0.665284   0.998062
  0.498532   0.663749   0.342390
  0.761187   0.833474   0.836895
  0.254715   0.494327   0.497511
  0.509809   0.001253   0.334663
  0.994172   0.999039   0.338179
  0.993406   0.664625   0.661855
  0.002883   0.331353   0.345662
  0.229548   0.518977   0.828095
  0.486531   0.339807   0.661889
  0.480119   0.344407   0.998341
  0.001721   0.667737   0.346395
  0.241960   0.835682   0.837626
  0.756402   0.491110   0.176360
  0.015098   0.330615   0.991503
  0.507789   0.662200   0.998189
  0.249229   0.157302   0.171584
  0.525262   0.992359   0.004183
  0.261852   0.844396   0.492685
  0.742446   0.839770   0.492338
  0.245147   0.505406   0.177713
  0.742440   0.490975   0.503008
  0.753442   0.840530   0.170664
  0.980143   0.002388   0.000409
  0.758321   0.498161   0.820372
  0.265118   0.164487   0.493491
  0.278446   0.151976   0.830125
  0.506727   0.991255   0.658295
  0.497401   0.332317   0.337829
  0.750191   0.162218   0.173943
  0.736789   0.168490   0.494173
