generated by pypospack                  
   4.98831000000000     
     1.4040772873499956   -0.0017911766242546   -0.0010774033196821
    -0.0024710719436125    2.0675078883999474    0.0081639084736363
    -0.0015689367198596    0.0081371477540251    2.0700473728437996
   Zr   Ta   Nb   Hf
     8    10     4    14
Direct
  0.5038300148326399  0.0040056348570554 -0.0028984371214516
  0.7544886099542508  0.4961156762371322  0.4967882467411532
  0.9944136197593206  0.9981692639357319 -0.0003899238467245
  0.0175520038289878  0.3261553352820796  0.9921504146684538
  0.4792137091396300  0.0081071893479822  0.3339226173152972
  0.2802159632481592  0.8238483802921213  0.5162443483465120
  0.7655164735611412  0.1793182714787878  0.1829679672295086
  0.9771211997429708  0.6885809878765530  0.0077213804066641
  0.7187925752512118  0.8345494072493583  0.1905874654289607
  0.2253313062123676  0.1761327105355281  0.5087433874785249
  0.0371989360884627  0.3317001736635048  0.3384791506563210
  0.2364277375668804  0.5005168541854282  0.8225094987099925
  0.2747140776651764  0.8237660995443772  0.1614051119479045
  0.4885589555142469  0.3334209877732546  0.6666027802721173
  0.2483066171551136  0.4986156310690278  0.5020089813188493
  0.4913819895696116  0.6627643384517959  0.3258292588581228
  0.4823250732073653  0.6310110836011857  0.6690397657698214
  0.0178900046761908  0.6600363387422412  0.6515623142818382
  0.0122359815770179  0.3330848329645288  0.6691265706603754
  0.2337465549204470  0.1642852978795855  0.1653488059415868
  0.7534757655142799  0.1889990202198761  0.8208548338820403
  0.2453447181075379  0.1746791918839017  0.8269497499449499
  0.4904282808792753  0.3278169840520538  0.9942772637692646
  0.7637863464747396  0.4919239669958809  0.1786940588784607
  0.2617142500252018  0.8187251401485590  0.8272541547011659
  0.7336995202387037  0.8262845279654125  0.5012753079865451
  0.7674107868781223  0.4969178169311618  0.8225063952921782
  0.2371285897423414  0.5112400563688037  0.1655376715470780
  0.0133379289033321  0.6830640092794874  0.3376059108064351
  0.7683745082050679  0.1774907130027104  0.5006937700649852
  0.4673172952778726  0.3280175566279928  0.3357162336138000
  0.0144995653370395  0.9905656990947416  0.3312186948561945
  0.5177136884217578  0.6655599275458095  0.0053938735768395
  0.4956329349753996  0.0272100478044886  0.6744214657198837
  0.0005589676371904  0.0034395289455369  0.6776800642931173
  0.7303154499109455  0.8138943181663196  0.8021708460032264
 
  0.00000000E+00  0.00000000E+00  0.00000000E+00
  0.00000000E+00  0.00000000E+00  0.00000000E+00
  0.00000000E+00  0.00000000E+00  0.00000000E+00
  0.00000000E+00  0.00000000E+00  0.00000000E+00
  0.00000000E+00  0.00000000E+00  0.00000000E+00
  0.00000000E+00  0.00000000E+00  0.00000000E+00
  0.00000000E+00  0.00000000E+00  0.00000000E+00
  0.00000000E+00  0.00000000E+00  0.00000000E+00
  0.00000000E+00  0.00000000E+00  0.00000000E+00
  0.00000000E+00  0.00000000E+00  0.00000000E+00
  0.00000000E+00  0.00000000E+00  0.00000000E+00
  0.00000000E+00  0.00000000E+00  0.00000000E+00
  0.00000000E+00  0.00000000E+00  0.00000000E+00
  0.00000000E+00  0.00000000E+00  0.00000000E+00
  0.00000000E+00  0.00000000E+00  0.00000000E+00
  0.00000000E+00  0.00000000E+00  0.00000000E+00
  0.00000000E+00  0.00000000E+00  0.00000000E+00
  0.00000000E+00  0.00000000E+00  0.00000000E+00
  0.00000000E+00  0.00000000E+00  0.00000000E+00
  0.00000000E+00  0.00000000E+00  0.00000000E+00
  0.00000000E+00  0.00000000E+00  0.00000000E+00
  0.00000000E+00  0.00000000E+00  0.00000000E+00
  0.00000000E+00  0.00000000E+00  0.00000000E+00
  0.00000000E+00  0.00000000E+00  0.00000000E+00
  0.00000000E+00  0.00000000E+00  0.00000000E+00
  0.00000000E+00  0.00000000E+00  0.00000000E+00
  0.00000000E+00  0.00000000E+00  0.00000000E+00
  0.00000000E+00  0.00000000E+00  0.00000000E+00
  0.00000000E+00  0.00000000E+00  0.00000000E+00
  0.00000000E+00  0.00000000E+00  0.00000000E+00
  0.00000000E+00  0.00000000E+00  0.00000000E+00
  0.00000000E+00  0.00000000E+00  0.00000000E+00
  0.00000000E+00  0.00000000E+00  0.00000000E+00
  0.00000000E+00  0.00000000E+00  0.00000000E+00
  0.00000000E+00  0.00000000E+00  0.00000000E+00
  0.00000000E+00  0.00000000E+00  0.00000000E+00
