generated by pypospack
   4.98831
  1.413657   0.000582   0.006155
  0.001066   2.072133   0.002279
  0.009137   0.002259   2.063656
 Zr Ta Nb Hf
 8 10 4 14
Direct
  0.507813   0.007268   0.002465
  0.748670   0.495676   0.496359
  0.991875  -0.003715  -0.000576
  0.015944   0.330504   0.988607
  0.481523   0.007840   0.327502
  0.293431   0.825460   0.512017
  0.777648   0.178252   0.184548
  0.979702   0.680058  -0.000844
  0.731336   0.829342   0.188406
  0.224495   0.178439   0.507168
  0.036349   0.335329   0.342172
  0.254915   0.494044   0.825186
  0.268266   0.823625   0.157149
  0.484008   0.329578   0.664850
  0.254784   0.495209   0.500628
  0.491471   0.663105   0.319954
  0.475548   0.635998   0.668310
  0.014825   0.669940   0.663431
  0.012503   0.335266   0.668934
  0.223592   0.163857   0.164716
  0.752646   0.188446   0.819539
  0.244242   0.171600   0.828141
  0.490684   0.323298   0.998524
  0.767874   0.494781   0.181482
  0.273319   0.828867   0.839188
  0.725234   0.830014   0.498850
  0.745233   0.490249   0.820924
  0.235081   0.508810   0.167314
  0.016122   0.684183   0.339601
  0.770241   0.179029   0.499886
  0.470062   0.324119   0.328953
  0.016401   0.988138   0.336360
  0.520498   0.661237   0.010670
  0.492435   0.030663   0.670192
 -0.000740   0.000232   0.672720
  0.711970   0.821272   0.806674
