generated by pypospack                  
   5.17602000000000     
     1.5453934848072504    0.0025785473763671    0.0012436005990425
     0.0025593819821261    1.5816153093539480    0.0055487021398387
     0.0012500023316238    0.0055594245601942    1.5649298689110978
   Pt   Au
    17    15
Direct
  0.2505919832114983  0.2536063738541720 -0.0027233396023249
  0.0005861741894529  0.2497137627785589  0.2495814252320689
 -0.0010729701918880 -0.0015735176557888  0.5004107592859054
  0.2505220503784417 -0.0042015205849836  0.7496329991277494
  0.2460506692459561  0.7485297730322532 -0.0023608044366179
  0.0002002831658529  0.7505489636191401  0.2495139825835875
  0.2426336721613462  0.7570516876302984  0.5055659696286962
  0.2454678755258084  0.5052143065700190  0.7556440383045999
  0.0006697091366762  0.7513576927031370  0.7513500322729531
  0.4967496912037353 -0.0040659513867570  0.9903271344832973
  0.5018493183406035 -0.0038123765630534  0.5048348342060109
  0.7532212902293025  0.2400678369190959  0.4981292411447584
  0.7505351533655448 -0.0056228621991445  0.7479352036203960
  0.4958967893524511  0.5033125530940059 -0.0010778348134433
  0.7528776900139967  0.7495417265597087 -0.0016476421138282
  0.7571846779470531  0.7571180480852117  0.5005458773584182
  0.0037229440820569  0.5029515528055677  0.0047886384135524
  0.0015294978692220  0.0004709329425327 -0.0017932961516178
  0.2508818928214225 -0.0002742341485377  0.2483649262469628
  0.2498522218687212  0.2474991857267145  0.5024097032196225
  0.0006370184760773  0.2491746019368634  0.7507271055681310
  0.2494699961487313  0.5019299857315294  0.2517446516923079
 -0.0005626285498550  0.5001100833508056  0.5004683703026737
  0.7486078176376502  0.2510189775159269  0.9989269244984484
  0.7487568301074322 -0.0015895229358372  0.2468809505101550
  0.4995950299528242  0.2481291772759163  0.2487784862783211
  0.4997220850313404  0.2498333723528916  0.7495493655226996
  0.7504070622220821  0.5008630549623021  0.2503175700610126
  0.4992745326820673  0.7514415018599165  0.2499461648327449
  0.5008767808737032  0.5021334263265437  0.5026614967269730
  0.7529315141212504  0.5014335485563596  0.7509907808877039
  0.5003313473794537  0.7480908592846460  0.7495762851080745
 
  0.00000000E+00  0.00000000E+00  0.00000000E+00
  0.00000000E+00  0.00000000E+00  0.00000000E+00
  0.00000000E+00  0.00000000E+00  0.00000000E+00
  0.00000000E+00  0.00000000E+00  0.00000000E+00
  0.00000000E+00  0.00000000E+00  0.00000000E+00
  0.00000000E+00  0.00000000E+00  0.00000000E+00
  0.00000000E+00  0.00000000E+00  0.00000000E+00
  0.00000000E+00  0.00000000E+00  0.00000000E+00
  0.00000000E+00  0.00000000E+00  0.00000000E+00
  0.00000000E+00  0.00000000E+00  0.00000000E+00
  0.00000000E+00  0.00000000E+00  0.00000000E+00
  0.00000000E+00  0.00000000E+00  0.00000000E+00
  0.00000000E+00  0.00000000E+00  0.00000000E+00
  0.00000000E+00  0.00000000E+00  0.00000000E+00
  0.00000000E+00  0.00000000E+00  0.00000000E+00
  0.00000000E+00  0.00000000E+00  0.00000000E+00
  0.00000000E+00  0.00000000E+00  0.00000000E+00
  0.00000000E+00  0.00000000E+00  0.00000000E+00
  0.00000000E+00  0.00000000E+00  0.00000000E+00
  0.00000000E+00  0.00000000E+00  0.00000000E+00
  0.00000000E+00  0.00000000E+00  0.00000000E+00
  0.00000000E+00  0.00000000E+00  0.00000000E+00
  0.00000000E+00  0.00000000E+00  0.00000000E+00
  0.00000000E+00  0.00000000E+00  0.00000000E+00
  0.00000000E+00  0.00000000E+00  0.00000000E+00
  0.00000000E+00  0.00000000E+00  0.00000000E+00
  0.00000000E+00  0.00000000E+00  0.00000000E+00
  0.00000000E+00  0.00000000E+00  0.00000000E+00
  0.00000000E+00  0.00000000E+00  0.00000000E+00
  0.00000000E+00  0.00000000E+00  0.00000000E+00
  0.00000000E+00  0.00000000E+00  0.00000000E+00
  0.00000000E+00  0.00000000E+00  0.00000000E+00
