generated by pypospack                  
   4.98831000000000     
     1.3766650680375339   -0.0019015911857763   -0.0011037490955209
    -0.0028773547548958    2.0520363833389101   -0.0044641214259252
    -0.0017199409727303   -0.0044538599897904    2.0728156955687402
   Hf   Zr   Nb   Ta
     9     9     9     9
Direct
  0.2549145168111317  0.1641330622012191  0.1613379633927173
  0.9972009756265130  0.9936163375617564  0.6621111175040926
  0.9934221171930573  0.3351549371994026  0.3209871595654774
  0.2324609467933691  0.4971297034385279  0.5188625988750392
  0.0049078054889556  0.6623356066977781  0.3248734364294810
  0.5064485316541121  0.9757220294132677  0.0079838099349077
  0.5240226460962940  0.9963001874438132  0.3290225488854583
  0.4982859355456238  0.6688392459510709  0.0018625899937770
  0.4982607621449979  0.6677080256270617  0.3211768191391124
  0.7331412078879534  0.1693926746546963  0.8375384044830038
  0.9940088234679213  0.9898936760564102  0.9956333066526621
  0.2589852774933940  0.1702564586701581  0.5076060168291837
  0.2624749213974236  0.1727658208388368  0.8361909821065148
  0.0053617184012663  0.6686108468243293  0.9982065748254686
  0.7378379010523464  0.1748795743382783  0.5137283675667773
  0.5023457819655434  0.3475310419343269  0.3240435395150885
  0.7663121811060249  0.5010112352549485  0.5133370347238649
  0.4990239545220845  0.6727436595814401  0.6690040709913315
  0.7734778517026740  0.8326459650609010  0.1748896536778361
  0.9948492765437678  0.3338884570482307  0.0008264655027570
  0.0025958187423195  0.6771852274926008  0.6728092813919090
  0.2483758565232775  0.8310308610342431  0.8163994868096441
  0.5024867543294225  0.3441467586113799  0.0016389416408754
  0.5018531380865350  0.3565050274610108  0.6800905783319614
  0.7511855832354013  0.4948219025416348  0.8362257507680319
  0.7543566530526434  0.8309277038728062  0.4993009198485653
  0.7510697159219076  0.8303020138914046  0.8215901903792006
 -0.0153280841608408 -0.0020776780011830  0.3404015366430136
  0.2443886373823072  0.4855823757585862  0.1445587117071934
  0.9975341539685555  0.3319770448026123  0.6881378344572356
  0.2461243859420931  0.4938982422289789  0.8339829665590307
  0.2318160415057294  0.8511988486929367  0.1907189660751662
  0.2483293236998010  0.8374399512779436  0.4916296691643912
  0.7420457316246530  0.1742922578016971  0.1539232780516052
  0.5002677183250195  0.9787292665880419  0.6611641916298699
  0.7551554389267198  0.4894816501488378  0.1481992359477572
 
  0.00000000E+00  0.00000000E+00  0.00000000E+00
  0.00000000E+00  0.00000000E+00  0.00000000E+00
  0.00000000E+00  0.00000000E+00  0.00000000E+00
  0.00000000E+00  0.00000000E+00  0.00000000E+00
  0.00000000E+00  0.00000000E+00  0.00000000E+00
  0.00000000E+00  0.00000000E+00  0.00000000E+00
  0.00000000E+00  0.00000000E+00  0.00000000E+00
  0.00000000E+00  0.00000000E+00  0.00000000E+00
  0.00000000E+00  0.00000000E+00  0.00000000E+00
  0.00000000E+00  0.00000000E+00  0.00000000E+00
  0.00000000E+00  0.00000000E+00  0.00000000E+00
  0.00000000E+00  0.00000000E+00  0.00000000E+00
  0.00000000E+00  0.00000000E+00  0.00000000E+00
  0.00000000E+00  0.00000000E+00  0.00000000E+00
  0.00000000E+00  0.00000000E+00  0.00000000E+00
  0.00000000E+00  0.00000000E+00  0.00000000E+00
  0.00000000E+00  0.00000000E+00  0.00000000E+00
  0.00000000E+00  0.00000000E+00  0.00000000E+00
  0.00000000E+00  0.00000000E+00  0.00000000E+00
  0.00000000E+00  0.00000000E+00  0.00000000E+00
  0.00000000E+00  0.00000000E+00  0.00000000E+00
  0.00000000E+00  0.00000000E+00  0.00000000E+00
  0.00000000E+00  0.00000000E+00  0.00000000E+00
  0.00000000E+00  0.00000000E+00  0.00000000E+00
  0.00000000E+00  0.00000000E+00  0.00000000E+00
  0.00000000E+00  0.00000000E+00  0.00000000E+00
  0.00000000E+00  0.00000000E+00  0.00000000E+00
  0.00000000E+00  0.00000000E+00  0.00000000E+00
  0.00000000E+00  0.00000000E+00  0.00000000E+00
  0.00000000E+00  0.00000000E+00  0.00000000E+00
  0.00000000E+00  0.00000000E+00  0.00000000E+00
  0.00000000E+00  0.00000000E+00  0.00000000E+00
  0.00000000E+00  0.00000000E+00  0.00000000E+00
  0.00000000E+00  0.00000000E+00  0.00000000E+00
  0.00000000E+00  0.00000000E+00  0.00000000E+00
  0.00000000E+00  0.00000000E+00  0.00000000E+00
