generated by pypospack                  
   4.98831000000000     
     1.3893631906918242    0.0022576646253813   -0.0011659379953107
     0.0032773529274562    2.0570532418278660    0.0007461501184986
    -0.0015908413278924    0.0006896552549968    2.0450332937090603
   Ta   Nb   Zr   Hf
     8    10    10     8
Direct
  0.7346814894207471  0.5062882107289476  0.1752415693080679
  0.5162405360775713  0.6692808578493253  0.9889799139090744
  0.2621350746285107  0.1800120091577666  0.1705115081342593
  0.0321581960976347  0.0091562010573787  0.3333942877660606
  0.0273856898248788  0.9853177628593267  0.6715288865920600
  0.7525776045998358  0.4943979455923174  0.4923712629004454
  0.4880342170427943  0.3304282298619228  0.6504252160852362
  0.5116888192569709  0.6663976224775754  0.3489655516352087
  0.2353723955978104  0.1773780915935993  0.5023671933341795
  0.5000319803578180  0.3341814222037299  0.3376562335885063
  0.2641920155356399  0.4898722806380964  0.8298482791773077
  0.9969721669095509  0.3329930945626504  0.3215656830469497
  0.0073967032544254  0.3424227398152174  0.6600839554414523
  0.9860161221638555  0.6607340980143465  0.3390665319429021
  0.2254265794906845  0.8274228374436750  0.4928449142936479
  0.2541923140341548  0.8273144230370801  0.8473238883427386
  0.4923380242697883  0.3391781201487528  0.0066850224821441
  0.7529351053776998  0.8416554944456520  0.8229948547392768
  0.0065044663284610 -0.0008124679393563  0.0000287421288153
  0.7643961258805317  0.1671355026639462  0.5014223304190318
  0.2465763600196113  0.1792173550906926  0.8296194008727403
  0.7541093774314584  0.1701782057764478  0.8241408752457532
  0.2614594440672349  0.5069034798035791  0.1741049258078972
  0.5018281988049038  0.9929613204024756  0.9953301690418398
  0.7401615807941160  0.1703767922054192  0.1748474994026329
  0.4721364011703851  0.0016316766427551  0.3423352796544395
  0.7324223765930431  0.4803906091577440  0.8261858202270780
  0.4938842637491008  0.6708245058771084  0.6654786829089396
  0.0022634882401982  0.3420148608991453  0.0115298191968546
  0.9864701466165753  0.6601147354576459  0.9877466560667093
  0.2516612620482968  0.8172718048690814  0.1685497297332374
  0.4768072435671737  0.9951530612371403  0.6657973426880025
  0.7545174194475467  0.8258483852000407  0.1791470666315354
  0.7702883112633229  0.8422768868037090  0.4967588977897446
  0.2404461658494514  0.4970108323216960  0.4902412675901094
  0.0043023341882219  0.6670710120433613  0.6748817418751262
 
  0.00000000E+00  0.00000000E+00  0.00000000E+00
  0.00000000E+00  0.00000000E+00  0.00000000E+00
  0.00000000E+00  0.00000000E+00  0.00000000E+00
  0.00000000E+00  0.00000000E+00  0.00000000E+00
  0.00000000E+00  0.00000000E+00  0.00000000E+00
  0.00000000E+00  0.00000000E+00  0.00000000E+00
  0.00000000E+00  0.00000000E+00  0.00000000E+00
  0.00000000E+00  0.00000000E+00  0.00000000E+00
  0.00000000E+00  0.00000000E+00  0.00000000E+00
  0.00000000E+00  0.00000000E+00  0.00000000E+00
  0.00000000E+00  0.00000000E+00  0.00000000E+00
  0.00000000E+00  0.00000000E+00  0.00000000E+00
  0.00000000E+00  0.00000000E+00  0.00000000E+00
  0.00000000E+00  0.00000000E+00  0.00000000E+00
  0.00000000E+00  0.00000000E+00  0.00000000E+00
  0.00000000E+00  0.00000000E+00  0.00000000E+00
  0.00000000E+00  0.00000000E+00  0.00000000E+00
  0.00000000E+00  0.00000000E+00  0.00000000E+00
  0.00000000E+00  0.00000000E+00  0.00000000E+00
  0.00000000E+00  0.00000000E+00  0.00000000E+00
  0.00000000E+00  0.00000000E+00  0.00000000E+00
  0.00000000E+00  0.00000000E+00  0.00000000E+00
  0.00000000E+00  0.00000000E+00  0.00000000E+00
  0.00000000E+00  0.00000000E+00  0.00000000E+00
  0.00000000E+00  0.00000000E+00  0.00000000E+00
  0.00000000E+00  0.00000000E+00  0.00000000E+00
  0.00000000E+00  0.00000000E+00  0.00000000E+00
  0.00000000E+00  0.00000000E+00  0.00000000E+00
  0.00000000E+00  0.00000000E+00  0.00000000E+00
  0.00000000E+00  0.00000000E+00  0.00000000E+00
  0.00000000E+00  0.00000000E+00  0.00000000E+00
  0.00000000E+00  0.00000000E+00  0.00000000E+00
  0.00000000E+00  0.00000000E+00  0.00000000E+00
  0.00000000E+00  0.00000000E+00  0.00000000E+00
  0.00000000E+00  0.00000000E+00  0.00000000E+00
  0.00000000E+00  0.00000000E+00  0.00000000E+00
