generated by pypospack
   4.98831
  1.392489   0.000495  -0.000368
  0.000666   2.068590   0.002020
 -0.000418   0.001948   2.043446
 Ta Nb Zr Hf
 8 10 10 8
Direct
  0.734035   0.505362   0.173341
  0.515451   0.668219   0.989934
  0.264086   0.178980   0.172572
  0.027678   0.003270   0.321637
  0.025509   0.977004   0.680342
  0.750820   0.496181   0.491559
  0.497060   0.344798   0.655364
  0.510128   0.668006   0.349948
  0.230279   0.177411   0.502988
  0.504989   0.334306   0.335896
  0.263104   0.491528   0.832284
  0.990887   0.335364   0.314535
 -0.001231   0.357574   0.668258
  0.986863   0.661751   0.338357
  0.223449   0.828400   0.491161
  0.255912   0.824895   0.848851
  0.491856   0.335515   0.004055
  0.751612   0.837410   0.826151
  0.006613   0.000626   0.002597
  0.764278   0.170390   0.503268
  0.248976   0.179910   0.825229
  0.753845   0.170730   0.821932
  0.263689   0.505414   0.173260
  0.502181   0.995475   0.993970
  0.736915   0.169567   0.174721
  0.475166   0.997956   0.342358
  0.733526   0.485201   0.832804
  0.495127   0.668059   0.662702
  0.004285   0.338367   0.011514
  0.988597   0.659934   0.988681
  0.255235   0.815470   0.167640
  0.479886   0.988418   0.668651
  0.752193   0.824417   0.177864
  0.772716   0.843548   0.495021
  0.240720   0.494866   0.488298
  0.003575   0.665678   0.672258
