generated by pypospack
   4.98831
  1.389363   0.002258  -0.001166
  0.003277   2.057053   0.000746
 -0.001591   0.000690   2.045033
 Hf Nb Ta Zr
 8 10 7 11
Direct
  0.002263   0.342015   0.011530
  0.986470   0.660115   0.987747
  0.251661   0.817272   0.168550
  0.476807   0.995153   0.665797
  0.754517   0.825848   0.179147
  0.770288   0.842277   0.496759
  0.240446   0.497011   0.490241
  0.004302   0.667071   0.674882
  0.235372   0.177378   0.502367
  0.500032   0.334181   0.337656
  0.264192   0.489872   0.829848
  0.996972   0.332993   0.321566
  0.007397   0.342423   0.660084
  0.986016   0.660734   0.339067
  0.225427   0.827423   0.492845
  0.254192   0.827314   0.847324
  0.492338   0.339178   0.006685
  0.752935   0.841655   0.822995
  0.734681   0.506288   0.175242
  0.516241   0.669281   0.988980
  0.032158   0.009156   0.333394
  0.027386   0.985318   0.671529
  0.752578   0.494398   0.492371
  0.488034   0.330428   0.650425
  0.511689   0.666398   0.348966
  0.262135   0.180012   0.170512
  0.006504  -0.000812   0.000029
  0.764396   0.167136   0.501422
  0.246576   0.179217   0.829619
  0.754109   0.170178   0.824141
  0.261459   0.506903   0.174105
  0.501828   0.992961   0.995330
  0.740162   0.170377   0.174847
  0.472136   0.001632   0.342335
  0.732422   0.480391   0.826186
  0.493884   0.670825   0.665479
