generated by pypospack                  
   4.98831000000000     
     1.3698221627193539    0.0005922036246558   -0.0013243729190121
     0.0010429314239680    2.0305101850266598   -0.0012121924635216
    -0.0019385145664163   -0.0012645962526659    2.0507715521009899
   Hf   Ta   Nb   Zr
     8    13     9     6
Direct
  0.2401936926889014  0.8266405746715081  0.1713768381372291
  0.4816589877580075  0.3415029953013884  0.6680471564573961
  0.5209791989338253  0.9954824107240744  0.9967709487609361
  0.7478187250050973  0.1653730254037015  0.4982965879652373
  0.0221146978892581  0.3386564058927216  0.6633990260154313
  0.7607125060177359  0.1691006807960579  0.8249423907983986
  0.5079552359099392  0.6702482596050978  0.6614283045084320
  0.4753328556004501  0.3380660117076231  0.9856111388129262
  0.2478867277296810  0.8389842957607325  0.4954704943336026
  0.7571594178868853  0.8383366462723348  0.4965052677104629
  0.2480931594134159  0.5089011007466047  0.1770797115745664
  0.9825941995188723  0.6651482450828070  0.0016398302930403
  0.7533269614347363  0.4995483452756735  0.4917235188749619
  0.7609168139910224  0.8314296411818469  0.1779309931246706
  0.9760322449133974  0.9907698687981068  0.0014250231894804
  0.7628102555244404  0.4950715863120774  0.8283275956696401
  0.9980190128735331  0.6669794496257662  0.3398944945556931
  0.2577564102933468  0.1564446454157279  0.4965609549258401
  0.2387776666237134  0.1418589712828494  0.8249675693860837
  0.5006409122281813  0.9910876339237372  0.6624172457233369
  0.4823133450843306  0.3420779568712974  0.3501768877626197
  0.4997379810449493  0.6650398043441162  0.3423430912915339
  0.7631648708721072  0.8331476455649323  0.8235475895550786
  0.2463304302255439  0.5094685072490222  0.4925760284001934
  0.5018528544224778  0.9932341985646550  0.3381206642770135
 -0.0000197855998985  0.9916783557227531  0.3374513770892054
  0.0048539818781146 -0.0013517533566874  0.6599040505777576
  0.9924401971039960  0.6636369284961989  0.6602907887145351
  0.0187638823953805  0.3442834030275051  0.3479633405502318
  0.2268798904786411  0.5270188114340695  0.8332715961040473
  0.7540422713719317  0.1678224609345302  0.1774522568122779
  0.2383093982883564  0.8350147987062768  0.8311275939867658
  0.7478373420444617  0.4927771322477988  0.1768536405257446
  0.0257655215424482  0.3384810774034880  0.9915192986970669
  0.5117858164059319  0.6633789978446514 -0.0040952686696081
  0.2451623202067812  0.1646738811649651  0.1776829735081747
 
  0.00000000E+00  0.00000000E+00  0.00000000E+00
  0.00000000E+00  0.00000000E+00  0.00000000E+00
  0.00000000E+00  0.00000000E+00  0.00000000E+00
  0.00000000E+00  0.00000000E+00  0.00000000E+00
  0.00000000E+00  0.00000000E+00  0.00000000E+00
  0.00000000E+00  0.00000000E+00  0.00000000E+00
  0.00000000E+00  0.00000000E+00  0.00000000E+00
  0.00000000E+00  0.00000000E+00  0.00000000E+00
  0.00000000E+00  0.00000000E+00  0.00000000E+00
  0.00000000E+00  0.00000000E+00  0.00000000E+00
  0.00000000E+00  0.00000000E+00  0.00000000E+00
  0.00000000E+00  0.00000000E+00  0.00000000E+00
  0.00000000E+00  0.00000000E+00  0.00000000E+00
  0.00000000E+00  0.00000000E+00  0.00000000E+00
  0.00000000E+00  0.00000000E+00  0.00000000E+00
  0.00000000E+00  0.00000000E+00  0.00000000E+00
  0.00000000E+00  0.00000000E+00  0.00000000E+00
  0.00000000E+00  0.00000000E+00  0.00000000E+00
  0.00000000E+00  0.00000000E+00  0.00000000E+00
  0.00000000E+00  0.00000000E+00  0.00000000E+00
  0.00000000E+00  0.00000000E+00  0.00000000E+00
  0.00000000E+00  0.00000000E+00  0.00000000E+00
  0.00000000E+00  0.00000000E+00  0.00000000E+00
  0.00000000E+00  0.00000000E+00  0.00000000E+00
  0.00000000E+00  0.00000000E+00  0.00000000E+00
  0.00000000E+00  0.00000000E+00  0.00000000E+00
  0.00000000E+00  0.00000000E+00  0.00000000E+00
  0.00000000E+00  0.00000000E+00  0.00000000E+00
  0.00000000E+00  0.00000000E+00  0.00000000E+00
  0.00000000E+00  0.00000000E+00  0.00000000E+00
  0.00000000E+00  0.00000000E+00  0.00000000E+00
  0.00000000E+00  0.00000000E+00  0.00000000E+00
  0.00000000E+00  0.00000000E+00  0.00000000E+00
  0.00000000E+00  0.00000000E+00  0.00000000E+00
  0.00000000E+00  0.00000000E+00  0.00000000E+00
  0.00000000E+00  0.00000000E+00  0.00000000E+00
