generated by pypospack
   4.98831
  1.380398  -0.003154  -0.001264
 -0.004545   2.030184  -0.002105
 -0.001859  -0.002162   2.050875
 Hf Ta Nb Zr
 8 13 9 6
Direct
  0.227024   0.830679   0.167941
  0.480895   0.343240   0.668814
  0.524007   0.990111  -0.000926
  0.744394   0.166212   0.499325
  0.022220   0.334966   0.666469
  0.752546   0.167502   0.824237
  0.507141   0.670298   0.660438
  0.474541   0.341306   0.983833
  0.239473   0.843543   0.498662
  0.765250   0.844300   0.500230
  0.235671   0.502442   0.175349
  0.981442   0.663158  -0.000249
  0.760540   0.493363   0.495969
  0.776861   0.834360   0.173431
  0.978755   0.996205  -0.000779
  0.761114   0.499061   0.827205
 -0.004622   0.665933   0.339687
  0.261077   0.157393   0.495856
  0.246626   0.140902   0.827593
  0.500089   0.990000   0.662280
  0.482511   0.346154   0.350591
  0.502866   0.666678   0.337464
  0.761564   0.832047   0.825361
  0.237451   0.505688   0.493591
  0.502915   0.989031   0.339189
  0.002350   0.995767   0.338690
  0.005169   0.002675   0.661850
  0.990266   0.665049   0.661102
  0.019595   0.341044   0.347362
  0.225640   0.529377   0.832318
  0.751064   0.168344   0.177180
  0.239447   0.833872   0.831211
  0.755835   0.486274   0.174464
  0.024648   0.334181   0.988509
  0.509016   0.663462  -0.000809
  0.254619   0.165396   0.176563
