generated by pypospack                  
   4.98831000000000     
     1.3792938753844457   -0.0025875327754397   -0.0018478423169324
    -0.0036227121864376    2.0396885153833662    0.0032554582056281
    -0.0027366238213925    0.0032045551679510    2.0437707094331374
   Hf   Nb   Ta   Zr
     6     9    12     9
Direct
  0.2474480855816295  0.8342164580007825  0.1695367184191061
  0.0097899868603733  0.3286858938234251  0.6596331052887580
  0.7251185966247153  0.1669554085914941  0.8223498760832918
  0.4962196232669457  0.6724874637338405  0.6642465748597718
  0.0062250676303961  0.0103640585548261  0.6521466117199222
 -0.0018907833870304  0.3319473950452663  0.3437876994710578
  0.0128483391844166  0.6457574716026508  0.9948975762308689
  0.4961202622488107  0.6644301937811196  0.3473599896607708
  0.2639598003190157  0.4938091668639251  0.5007740546973675
  0.5092688220939724  0.0001234988316134  0.3362766856318741
  0.9952140721707270  0.0032817625009738  0.3446058543349127
 -0.0005168071943455  0.6597662733963290  0.6593991150527807
  0.2344183235646566  0.5042702505677342  0.8261183742476563
  0.4858816203172661  0.3387757329164627  0.6633208257480991
  0.7428722202234683  0.1587836916681687  0.1720975136086445
  0.5092011345734685  0.0046654695964317  0.0026388028238226
  0.2608898650132975  0.8418783017884770  0.4891682286616225
  0.7420725770466136  0.8402335274526479  0.4946688690087737
  0.2591433377740247  0.5075459931364263  0.1750839545361108
  0.7371451152469782  0.4923218225972273  0.5103839669564295
  0.9910640778554416  0.0273284637509774  0.0011843892017826
  0.7572291846394180  0.4975201174334392  0.8170477267931288
  0.2764858543287282  0.1637678997261454  0.4929261377500218
  0.2702957799238586  0.1536498953763520  0.8316134937337992
  0.4939651031426974  0.9890174151151800  0.6581457101909614
  0.5035781667034436  0.3355569643516711  0.3360420801117552
  0.7256856822044490  0.1650730173579597  0.5012191444176733
  0.7683026862717011  0.8331496811092157  0.8385223530890791
  0.7584012347374077  0.8354090676666512  0.1681719763307621
  0.4923959720821661  0.3383498806497359  0.0006352319355615
  0.0077730656856922  0.6611837579994301  0.3526284015236925
  0.2297954230584744  0.8418285583114088  0.8426487799497829
  0.7440471304828159  0.5120499316243828  0.1724332390357459
  0.0022540765411912  0.3308758264545222  0.9974363878074938
  0.4897788664176829  0.6579451724607439  0.9866403512751286
  0.2575154367654462  0.1570065161623523  0.1742091998119999
 
  0.00000000E+00  0.00000000E+00  0.00000000E+00
  0.00000000E+00  0.00000000E+00  0.00000000E+00
  0.00000000E+00  0.00000000E+00  0.00000000E+00
  0.00000000E+00  0.00000000E+00  0.00000000E+00
  0.00000000E+00  0.00000000E+00  0.00000000E+00
  0.00000000E+00  0.00000000E+00  0.00000000E+00
  0.00000000E+00  0.00000000E+00  0.00000000E+00
  0.00000000E+00  0.00000000E+00  0.00000000E+00
  0.00000000E+00  0.00000000E+00  0.00000000E+00
  0.00000000E+00  0.00000000E+00  0.00000000E+00
  0.00000000E+00  0.00000000E+00  0.00000000E+00
  0.00000000E+00  0.00000000E+00  0.00000000E+00
  0.00000000E+00  0.00000000E+00  0.00000000E+00
  0.00000000E+00  0.00000000E+00  0.00000000E+00
  0.00000000E+00  0.00000000E+00  0.00000000E+00
  0.00000000E+00  0.00000000E+00  0.00000000E+00
  0.00000000E+00  0.00000000E+00  0.00000000E+00
  0.00000000E+00  0.00000000E+00  0.00000000E+00
  0.00000000E+00  0.00000000E+00  0.00000000E+00
  0.00000000E+00  0.00000000E+00  0.00000000E+00
  0.00000000E+00  0.00000000E+00  0.00000000E+00
  0.00000000E+00  0.00000000E+00  0.00000000E+00
  0.00000000E+00  0.00000000E+00  0.00000000E+00
  0.00000000E+00  0.00000000E+00  0.00000000E+00
  0.00000000E+00  0.00000000E+00  0.00000000E+00
  0.00000000E+00  0.00000000E+00  0.00000000E+00
  0.00000000E+00  0.00000000E+00  0.00000000E+00
  0.00000000E+00  0.00000000E+00  0.00000000E+00
  0.00000000E+00  0.00000000E+00  0.00000000E+00
  0.00000000E+00  0.00000000E+00  0.00000000E+00
  0.00000000E+00  0.00000000E+00  0.00000000E+00
  0.00000000E+00  0.00000000E+00  0.00000000E+00
  0.00000000E+00  0.00000000E+00  0.00000000E+00
  0.00000000E+00  0.00000000E+00  0.00000000E+00
  0.00000000E+00  0.00000000E+00  0.00000000E+00
  0.00000000E+00  0.00000000E+00  0.00000000E+00
