generated by pypospack
   4.98831
  1.369440  -0.000546  -0.000721
 -0.000587   2.041313   0.003089
 -0.001040   0.003030   2.045051
 Hf Nb Ta Zr
 6 9 12 9
Direct
  0.247277   0.836501   0.166622
  0.009383   0.329727   0.664218
  0.721384   0.163138   0.819330
  0.496326   0.670628   0.660215
  0.008172   0.007369   0.654197
  0.001666   0.333915   0.346941
  0.012655   0.646036   0.995049
  0.496709   0.662996   0.345797
  0.255932   0.492865   0.498852
  0.507928   0.002863   0.335664
  0.994417   0.000459   0.343679
  0.000787   0.659714   0.659032
  0.237473   0.505999   0.826457
  0.487468   0.339880   0.662266
  0.748428   0.162650   0.176898
  0.509292   0.008431   0.006672
  0.262649   0.842752   0.487760
  0.740580   0.841626   0.493619
  0.247267   0.498377   0.178347
  0.743581   0.490123   0.504207
  0.990157   0.026725   0.998455
  0.758004   0.503923   0.818064
  0.264253   0.166992   0.492257
  0.274292   0.153718   0.830683
  0.492909   0.990426   0.654349
  0.500096   0.334553   0.339537
  0.737467   0.168557   0.498718
  0.762751   0.830379   0.838561
  0.756134   0.836409   0.165774
  0.495919   0.338082   0.000208
  0.005881   0.666692   0.351845
  0.237465   0.839911   0.843658
  0.754846   0.501303   0.178677
  0.000436   0.330126   0.993703
  0.490728   0.651400   0.993478
  0.249285   0.164767   0.176210
