generated by pypospack
   4.98831
  1.383558  -0.000376   0.000450
 -0.000465   2.037999   0.000271
  0.000677   0.000244   2.049491
 Nb Hf Zr Ta
 8 8 7 13
Direct
  0.762448   0.834564   0.825852
  0.236769   0.503731   0.495282
  0.504396   0.984650   0.328814
  0.995389   0.991660   0.330428
  0.006546   0.015376   0.659816
  0.990040   0.656768   0.658828
  0.018964   0.341383   0.346877
  0.231382   0.522483   0.829310
  0.494109   0.335798   0.668087
  0.489459   0.988331   0.009418
  0.744007   0.165727   0.490924
  0.253532   0.169341   0.180297
  0.006959   0.333018   0.667856
  0.238563   0.841084   0.501549
  0.759911   0.150689   0.836930
  0.508433   0.658688   0.659423
  0.751193   0.165443   0.170951
  0.240264   0.834365   0.822897
  0.756005   0.488901   0.171672
  0.501897   0.667607   0.335111
  0.019820   0.338277   0.985318
  0.496431   0.667420   0.002895
  0.484191   0.341246   0.984014
  0.761190   0.842838   0.502007
  0.238452   0.496200   0.175030
 -0.000012   0.665939   0.007616
  0.225550   0.834521   0.176260
  0.759820   0.491490   0.492613
  0.772604   0.833559   0.170711
  0.014207   0.992934   0.010073
  0.765253   0.517049   0.833041
  0.993863   0.667119   0.333099
  0.256910   0.158986   0.495137
  0.244861   0.147372   0.826508
  0.496841   0.008120   0.663954
  0.479753   0.347333   0.351396
