generated by pypospack                  
   4.98831000000000     
     1.3773021477003191   -0.0031595457189740    0.0019420876201392
    -0.0047655111030353    2.0498360758013989   -0.0011082515662322
     0.0028913027173889   -0.0010463758453118    2.0730930657682869
   Hf   Nb   Ta   Zr
     9     9     9     9
Direct
  0.2514193694464518  0.1640127531152391  0.1617277412346514
  0.9892393792253795  0.9981158788062333  0.6658437709507201
  0.9972038811087505  0.3398577137847739  0.3204818038455238
  0.2373480329507036  0.4912773730893443  0.5279388478152378
  0.0255919991161348  0.6538910752251955  0.3289595259015544
  0.5092825656857658  0.9858413015101470  0.9983355405163832
  0.4984156537139241  0.9910381611933999  0.3342946592983072
  0.4959594468393999  0.6687028685163621  0.9985723776479111
  0.4854393816276856  0.6665377273160115  0.3247201265214769
  0.9901470527154330  0.3310681480038904  0.9992253107573641
  0.0019193941439977  0.6770376781359579  0.6716041329922411
  0.2489308756802890  0.8346178891874111  0.8162116683935184
  0.7355830493186767  0.1746714163963819  0.8355718682787352
  0.5089704473379135  0.3362168541926218  0.0005732209892645
  0.5136818851444441  0.3441820196390135  0.6848789680724011
  0.7525132647574637  0.4959149738562099  0.8373219251216809
  0.7545036050214796  0.8324471152112881  0.4962294470498374
  0.7522485037347298  0.8269917523647300  0.8198377633415901
  0.0014291505382661  0.0034720472166467  0.3469604753281486
  0.2456673717982150  0.4820869709177629  0.1387053652702832
  0.9851901973318822  0.3276156371438279  0.6901704003671433
  0.2486551181836751  0.4903796900833660  0.8344194513698217
  0.2256600679655347  0.8514414715469971  0.1764933292963209
  0.2462005222509878  0.8378243526042688  0.5028224290928751
  0.7412801757258658  0.1736715067144469  0.1614904055215683
  0.5058485501194372  0.9851713079351693  0.6643499860323848
  0.7552366624409411  0.4919872807692211  0.1489652457688271
  0.9871641237796781  0.9992450280123432  0.9856514623205661
  0.2554951093537414  0.1710518470856076  0.5077720888649296
  0.2637276619305980  0.1723272763114199  0.8324421285271631
  0.0087301022346523  0.6658494341840907  0.9937728051523471
  0.7386113236408112  0.1732694960783426  0.5064949277069318
  0.4985097167278874  0.3530377498961181  0.3220672582736012
  0.7629014149215425  0.5021541562387314  0.5125992299820874
  0.7803002852453325  0.8339750460766474  0.1815038187197676
  0.5009946582423508  0.6730170016407954  0.6709904936768205
 
  0.00000000E+00  0.00000000E+00  0.00000000E+00
  0.00000000E+00  0.00000000E+00  0.00000000E+00
  0.00000000E+00  0.00000000E+00  0.00000000E+00
  0.00000000E+00  0.00000000E+00  0.00000000E+00
  0.00000000E+00  0.00000000E+00  0.00000000E+00
  0.00000000E+00  0.00000000E+00  0.00000000E+00
  0.00000000E+00  0.00000000E+00  0.00000000E+00
  0.00000000E+00  0.00000000E+00  0.00000000E+00
  0.00000000E+00  0.00000000E+00  0.00000000E+00
  0.00000000E+00  0.00000000E+00  0.00000000E+00
  0.00000000E+00  0.00000000E+00  0.00000000E+00
  0.00000000E+00  0.00000000E+00  0.00000000E+00
  0.00000000E+00  0.00000000E+00  0.00000000E+00
  0.00000000E+00  0.00000000E+00  0.00000000E+00
  0.00000000E+00  0.00000000E+00  0.00000000E+00
  0.00000000E+00  0.00000000E+00  0.00000000E+00
  0.00000000E+00  0.00000000E+00  0.00000000E+00
  0.00000000E+00  0.00000000E+00  0.00000000E+00
  0.00000000E+00  0.00000000E+00  0.00000000E+00
  0.00000000E+00  0.00000000E+00  0.00000000E+00
  0.00000000E+00  0.00000000E+00  0.00000000E+00
  0.00000000E+00  0.00000000E+00  0.00000000E+00
  0.00000000E+00  0.00000000E+00  0.00000000E+00
  0.00000000E+00  0.00000000E+00  0.00000000E+00
  0.00000000E+00  0.00000000E+00  0.00000000E+00
  0.00000000E+00  0.00000000E+00  0.00000000E+00
  0.00000000E+00  0.00000000E+00  0.00000000E+00
  0.00000000E+00  0.00000000E+00  0.00000000E+00
  0.00000000E+00  0.00000000E+00  0.00000000E+00
  0.00000000E+00  0.00000000E+00  0.00000000E+00
  0.00000000E+00  0.00000000E+00  0.00000000E+00
  0.00000000E+00  0.00000000E+00  0.00000000E+00
  0.00000000E+00  0.00000000E+00  0.00000000E+00
  0.00000000E+00  0.00000000E+00  0.00000000E+00
  0.00000000E+00  0.00000000E+00  0.00000000E+00
  0.00000000E+00  0.00000000E+00  0.00000000E+00
