generated by pypospack
   4.98831
  1.384400  -0.003468   0.008637
 -0.005115   2.052001  -0.001510
  0.012751  -0.001724   2.020684
 Nb Hf Ta Zr
 11 8 9 8
Direct
  0.506173   0.662351   0.000097
  0.990964   0.985085   0.322255
  0.502349   0.988753   0.349847
  0.733621   0.832470   0.175603
  0.511417   0.346222   0.338984
  0.267268   0.500650   0.839537
  0.982974   0.348432   0.311529
  0.004582   0.345830   0.683739
  0.247196   0.832270   0.488626
  0.489232   0.341141   0.993429
  0.249266   0.168547   0.835559
  0.227259   0.168439   0.489227
  0.003107   0.342824  -0.000059
  0.997273   0.662473   0.005997
  0.267842   0.828390   0.172663
  0.475285   0.002009   0.662896
  0.760168   0.828846   0.504790
  0.025825   0.665218   0.675256
  0.268453   0.830417   0.842195
  0.262623   0.506026   0.172601
  0.737157   0.503164   0.834507
  0.730579   0.501627   0.168071
  0.034749   0.988852   0.675528
  0.512889   0.664238   0.338341
  0.755564   0.507454   0.495652
  0.986888   0.664542   0.321022
  0.488414   0.658669   0.664866
  0.484296   0.999273   0.988773
  0.257916   0.169077   0.175983
  0.007073   0.996690   0.001083
  0.772555   0.165951   0.499195
  0.752557   0.167353   0.829558
  0.726804   0.166600   0.166901
  0.498015   0.335614   0.663690
  0.742722   0.831593   0.824149
  0.238940   0.492917   0.487909
