generated by pypospack                  
   4.94975000000000     
     1.6144466753288773   -0.0046202485583453    0.0028527792234650
    -0.0045122053301399    1.6591552620780066   -0.0076472320636134
     0.0027873151538493   -0.0076779811499034    1.6455263329173377
   Pt   Au
    15    17
Direct
  0.0025500521462158  0.9949360438292502  0.5002004307794123
  0.2546902313079088  0.2439014520023066  0.4986015665847306
  0.2535175507210666  0.9971915413371506  0.7469335315973029
  0.9968228921595547  0.5039218132461045  0.0066784489010050
  0.2470899064728986  0.7534817482367528  0.0002368218447148
  0.9978145931227932  0.7509660920221575  0.2498631952658074
  0.2496804685492059  0.7537565077904996  0.4979937198947799
  0.5031204465506310  0.0033977727330667  0.9990087263530696
  0.7478521430794464  0.2483161353915761  0.0047674917631158
  0.7469810961987189  0.0014525644771363  0.2522903195382645
  0.5063059489076595  0.2477354209024757  0.2529621518290998
  0.4989736872224769  0.0018755329464016  0.5002460193264385
  0.7478109609097606  0.0036343791875757  0.7493241463366027
  0.7505022003389695  0.4978558464699890  0.2481141437981108
  0.4967381751250030  0.4966455871588023  0.4927978054277361
  0.7490711427592766  0.7527628938998110  0.0017216751678348
  0.9982053191018749  0.9998900441307764  0.9992391959820279
  0.2515564496222826  0.2489750111656549  0.0006168954552144
  0.2518291080260287  0.9985277592674208  0.2491565993875441
  0.9993394137405821  0.2479445158260196  0.2512870030608588
  0.0018332116220286  0.2475746899402520  0.7507460118168316
  0.2494770047070590  0.5008817730108727  0.2501118970653633
  0.0025295863159469  0.5006357530272190  0.4980613282802147
  0.2492633083329740  0.5011272762515685  0.7491185839548199
  0.0006304923626707  0.7520796226589533  0.7499452634870785
  0.7508466497881573  0.2485231027643079  0.5001706165889792
  0.5000070956246332  0.2490269894793629  0.7491204179043548
  0.4998614849075296  0.4999781679131968  0.0024700084008969
  0.4993826998458172  0.7513407631897167  0.2506218904408317
  0.7484449390946096  0.7509074747445048  0.4982555077580693
  0.7499682894410677  0.4987478138639060  0.7515715752292416
  0.4973054518951339  0.7520099111351919  0.7477680107796385
 
  0.00000000E+00  0.00000000E+00  0.00000000E+00
  0.00000000E+00  0.00000000E+00  0.00000000E+00
  0.00000000E+00  0.00000000E+00  0.00000000E+00
  0.00000000E+00  0.00000000E+00  0.00000000E+00
  0.00000000E+00  0.00000000E+00  0.00000000E+00
  0.00000000E+00  0.00000000E+00  0.00000000E+00
  0.00000000E+00  0.00000000E+00  0.00000000E+00
  0.00000000E+00  0.00000000E+00  0.00000000E+00
  0.00000000E+00  0.00000000E+00  0.00000000E+00
  0.00000000E+00  0.00000000E+00  0.00000000E+00
  0.00000000E+00  0.00000000E+00  0.00000000E+00
  0.00000000E+00  0.00000000E+00  0.00000000E+00
  0.00000000E+00  0.00000000E+00  0.00000000E+00
  0.00000000E+00  0.00000000E+00  0.00000000E+00
  0.00000000E+00  0.00000000E+00  0.00000000E+00
  0.00000000E+00  0.00000000E+00  0.00000000E+00
  0.00000000E+00  0.00000000E+00  0.00000000E+00
  0.00000000E+00  0.00000000E+00  0.00000000E+00
  0.00000000E+00  0.00000000E+00  0.00000000E+00
  0.00000000E+00  0.00000000E+00  0.00000000E+00
  0.00000000E+00  0.00000000E+00  0.00000000E+00
  0.00000000E+00  0.00000000E+00  0.00000000E+00
  0.00000000E+00  0.00000000E+00  0.00000000E+00
  0.00000000E+00  0.00000000E+00  0.00000000E+00
  0.00000000E+00  0.00000000E+00  0.00000000E+00
  0.00000000E+00  0.00000000E+00  0.00000000E+00
  0.00000000E+00  0.00000000E+00  0.00000000E+00
  0.00000000E+00  0.00000000E+00  0.00000000E+00
  0.00000000E+00  0.00000000E+00  0.00000000E+00
  0.00000000E+00  0.00000000E+00  0.00000000E+00
  0.00000000E+00  0.00000000E+00  0.00000000E+00
  0.00000000E+00  0.00000000E+00  0.00000000E+00
