generated by pypospack                  
   4.98831000000000     
     1.3973306315788450   -0.0000488582970880    0.0013025499112671
    -0.0001259582124343    2.0780861494065261    0.0038775329398251
     0.0019370339091268    0.0038514366008151    2.0279332796487086
   Hf   Zr   Nb   Ta
     8    11    11     6
Direct
  0.9911694197306037  0.3468642045785050  0.0060473211997595
  0.9900085735237864  0.6623735496521130  0.9957843520989925
  0.2514684069416967  0.8282409191608093  0.1653790390022667
  0.4767795644107479  0.9950008690986865  0.6628099604248082
  0.7697069918457755  0.8326169927310835  0.5046982608889315
  0.2363031227729217  0.5011368726496229  0.4859063814060938
  0.0252911165772214  0.6710567660188148  0.6829555431960100
  0.7565957214776896  0.4993752473597474  0.4954486899736814
  0.2558928718594014  0.1682950051290180  0.1656363106211659
  0.9787733483186291  0.9928992665067793  0.0022774385360754
  0.7656444937988115  0.1690646791405012  0.5047502464099393
  0.2575437838996086  0.1710984861170083  0.8414602264215288
  0.7554754723532948  0.1728725075526707  0.8196329068232873
  0.2601381271237206  0.5050372241583990  0.1746415175068078
  0.5297887623559644  0.9823443092098533  0.9935827288091553
  0.7358222853593711  0.1775996578242351  0.1764655864425428
  0.4871372673310088  0.9962467904512594  0.3473737146131594
  0.7396099749520509  0.4895077376022489  0.8172653094708819
  0.4814022689027619  0.6715684247826645  0.6702200895732429
  0.7469596521016576  0.8216367621195835  0.1783562553847777
  0.2293308412100415  0.1718443524813546  0.4984805631045217
  0.4944986891842723  0.3300863095299457  0.3496758414765153
  0.2694635779496036  0.4909673782945615  0.8373650155670287
  0.9941303465712281  0.3319708632233302  0.3215120421886198
  0.0318531879445275  0.3360692292398061  0.6701340663278296
  0.9824456596180186  0.6721425780618672  0.3196263200116209
  0.2233754888016259  0.8285975836162831  0.4876145931743370
  0.2564112409113610  0.8357177085599751  0.8528526161673967
  0.5093662596708128  0.3506521160551077 -0.0022253462977978
  0.7547479808630146  0.8324829941322431  0.8160279349190805
  0.7328350775405474  0.5027876639877544  0.1759431285794130
  0.5130033359205104  0.6672378899366080  0.9973567807556539
  0.0048991407719983 -0.0004814051673606  0.3336531043717765
  0.0294750765967743  0.9900360956457099  0.6691264697747061
  0.4733588702559363  0.3294398996601660  0.6501042781626519
  0.5093010005530002  0.6756124708990511  0.3320607129135296
 
  0.00000000E+00  0.00000000E+00  0.00000000E+00
  0.00000000E+00  0.00000000E+00  0.00000000E+00
  0.00000000E+00  0.00000000E+00  0.00000000E+00
  0.00000000E+00  0.00000000E+00  0.00000000E+00
  0.00000000E+00  0.00000000E+00  0.00000000E+00
  0.00000000E+00  0.00000000E+00  0.00000000E+00
  0.00000000E+00  0.00000000E+00  0.00000000E+00
  0.00000000E+00  0.00000000E+00  0.00000000E+00
  0.00000000E+00  0.00000000E+00  0.00000000E+00
  0.00000000E+00  0.00000000E+00  0.00000000E+00
  0.00000000E+00  0.00000000E+00  0.00000000E+00
  0.00000000E+00  0.00000000E+00  0.00000000E+00
  0.00000000E+00  0.00000000E+00  0.00000000E+00
  0.00000000E+00  0.00000000E+00  0.00000000E+00
  0.00000000E+00  0.00000000E+00  0.00000000E+00
  0.00000000E+00  0.00000000E+00  0.00000000E+00
  0.00000000E+00  0.00000000E+00  0.00000000E+00
  0.00000000E+00  0.00000000E+00  0.00000000E+00
  0.00000000E+00  0.00000000E+00  0.00000000E+00
  0.00000000E+00  0.00000000E+00  0.00000000E+00
  0.00000000E+00  0.00000000E+00  0.00000000E+00
  0.00000000E+00  0.00000000E+00  0.00000000E+00
  0.00000000E+00  0.00000000E+00  0.00000000E+00
  0.00000000E+00  0.00000000E+00  0.00000000E+00
  0.00000000E+00  0.00000000E+00  0.00000000E+00
  0.00000000E+00  0.00000000E+00  0.00000000E+00
  0.00000000E+00  0.00000000E+00  0.00000000E+00
  0.00000000E+00  0.00000000E+00  0.00000000E+00
  0.00000000E+00  0.00000000E+00  0.00000000E+00
  0.00000000E+00  0.00000000E+00  0.00000000E+00
  0.00000000E+00  0.00000000E+00  0.00000000E+00
  0.00000000E+00  0.00000000E+00  0.00000000E+00
  0.00000000E+00  0.00000000E+00  0.00000000E+00
  0.00000000E+00  0.00000000E+00  0.00000000E+00
  0.00000000E+00  0.00000000E+00  0.00000000E+00
  0.00000000E+00  0.00000000E+00  0.00000000E+00
