generated by pypospack                  
   4.98831000000000     
     1.3940444307328852    0.0002835644085909    0.0086214523485247
     0.0004419383907753    2.0541343846162019   -0.0000337203241970
     0.0126209683566189   -0.0002569500212183    2.0408448389856835
   Hf   Nb   Zr   Ta
    10    11     8     7
Direct
  0.2681039692527539  0.5048865236423173  0.1670760003549430
  0.4911556097128549  0.6654340085878166  0.6461340716488000
  0.2624549729801844  0.5085295420908492  0.8449613986189842
  0.2260246722953334  0.1692167836210957  0.4851082999262860
  0.0069730483633725  0.3309135302476074  0.0039702382552240
  0.9676075384400128  0.6636164301723377  0.0186556447525095
  0.2627018952521418  0.8254740485863085  0.1656736053202532
  0.4712794767154531  0.9990166586338189  0.6547453169543872
  0.7704787014492283  0.8393115738481554  0.5013523650079129
  0.2648896959252272  0.8217582063181067  0.8474838617129358
  0.2539571007920318  0.1663703133538859  0.1784064963268701
  0.0211894565079584  0.6714568634375455  0.6576134132556212
  0.5412007788282300  0.6673480447579038  0.0088776904736822
  0.9989271261385871  0.9912454922562683  0.3190861874898033
  0.7352103982790246  0.8371160660727819  0.1805153197702458
  0.5041265763352646  0.3408436166505957  0.3416886841771125
  0.9848016878902149  0.3430057615286456  0.3152800863813521
  0.0157962318603820  0.3293209974520225  0.6822815858712333
  0.2330255835573790  0.8335745403372651  0.4868507048739570
  0.4863886122873971  0.3175089473892345  0.0002495622012303
  0.2499286317149267  0.1686125827678407  0.8336296271426844
  0.0112259427383418  0.0057154535674195  0.0040514194949305
  0.7658084596556071  0.1646592344699973  0.4983135654443639
  0.7486359183680754  0.1626912713992638  0.8287516241809096
  0.7332156840036134  0.1687940351179237  0.1735158256375542
  0.4911215359602990  0.3334527888083765  0.6568929755783499
  0.7554234382016825  0.8386613768881848  0.8235010536483642
  0.2265662706206416  0.4948569438742133  0.4887837597584500
  0.7552379861351468  0.4978700916786084  0.8232793167035822
  0.7269797291026161  0.4951796081543900  0.1784907566743504
  0.0358555608666036  0.9981400208816962  0.6749817693704169
  0.5125152460296525  0.6702789621731404  0.3450919201725418
  0.7674218784561387  0.5038722734006879  0.4937953058547556
  0.9810790923615227  0.6663121804270608  0.3252412204085534
  0.4805251504885443  0.0142822990495152  0.0062166568035053
  0.4921603424335426  0.9906809283571205  0.3394466697533594
 
  0.00000000E+00  0.00000000E+00  0.00000000E+00
  0.00000000E+00  0.00000000E+00  0.00000000E+00
  0.00000000E+00  0.00000000E+00  0.00000000E+00
  0.00000000E+00  0.00000000E+00  0.00000000E+00
  0.00000000E+00  0.00000000E+00  0.00000000E+00
  0.00000000E+00  0.00000000E+00  0.00000000E+00
  0.00000000E+00  0.00000000E+00  0.00000000E+00
  0.00000000E+00  0.00000000E+00  0.00000000E+00
  0.00000000E+00  0.00000000E+00  0.00000000E+00
  0.00000000E+00  0.00000000E+00  0.00000000E+00
  0.00000000E+00  0.00000000E+00  0.00000000E+00
  0.00000000E+00  0.00000000E+00  0.00000000E+00
  0.00000000E+00  0.00000000E+00  0.00000000E+00
  0.00000000E+00  0.00000000E+00  0.00000000E+00
  0.00000000E+00  0.00000000E+00  0.00000000E+00
  0.00000000E+00  0.00000000E+00  0.00000000E+00
  0.00000000E+00  0.00000000E+00  0.00000000E+00
  0.00000000E+00  0.00000000E+00  0.00000000E+00
  0.00000000E+00  0.00000000E+00  0.00000000E+00
  0.00000000E+00  0.00000000E+00  0.00000000E+00
  0.00000000E+00  0.00000000E+00  0.00000000E+00
  0.00000000E+00  0.00000000E+00  0.00000000E+00
  0.00000000E+00  0.00000000E+00  0.00000000E+00
  0.00000000E+00  0.00000000E+00  0.00000000E+00
  0.00000000E+00  0.00000000E+00  0.00000000E+00
  0.00000000E+00  0.00000000E+00  0.00000000E+00
  0.00000000E+00  0.00000000E+00  0.00000000E+00
  0.00000000E+00  0.00000000E+00  0.00000000E+00
  0.00000000E+00  0.00000000E+00  0.00000000E+00
  0.00000000E+00  0.00000000E+00  0.00000000E+00
  0.00000000E+00  0.00000000E+00  0.00000000E+00
  0.00000000E+00  0.00000000E+00  0.00000000E+00
  0.00000000E+00  0.00000000E+00  0.00000000E+00
  0.00000000E+00  0.00000000E+00  0.00000000E+00
  0.00000000E+00  0.00000000E+00  0.00000000E+00
  0.00000000E+00  0.00000000E+00  0.00000000E+00
