generated by pypospack
   4.98831
  1.373990  -0.000231  -0.000692
 -0.000236   2.032987  -0.000795
 -0.001006  -0.000841   2.046060
 Hf Nb Ta Zr
 6 8 14 8
Direct
  0.492036   0.339460   0.669330
  0.503463   0.989979   0.003949
  0.743902   0.164703   0.494326
  0.012374   0.334745   0.666587
  0.763355   0.150483   0.827571
  0.506601   0.669260   0.660280
  0.757530   0.834627   0.827130
  0.238315   0.504759   0.496146
  0.498432   0.987009   0.333056
  0.003139   0.992474   0.333495
  0.003561  -0.000205   0.658846
  0.991020   0.664722   0.661119
  0.018726   0.342349   0.348891
  0.227991   0.525252   0.832405
  0.236872   0.841329   0.500478
  0.763021   0.842013   0.498182
  0.239705   0.496297   0.174331
  0.992673   0.669249   0.006102
  0.227895   0.837071   0.172473
  0.760559   0.495469   0.495735
  0.770712   0.835483   0.174016
  0.998858   0.992294   0.005765
  0.765239   0.513347   0.830535
  0.001179   0.668366   0.334558
  0.259935   0.158224   0.494766
  0.239037   0.143317   0.823459
  0.498941   0.990929   0.660791
  0.482789   0.347842   0.352767
  0.751261   0.167753   0.174878
  0.239961   0.832825   0.826998
  0.755485   0.489134   0.173779
  0.497326   0.668155   0.336441
  0.019400   0.334920   0.985843
  0.502085   0.669879   0.002354
  0.483318   0.338324   0.982595
  0.253300   0.168173   0.180022
