generated by pypospack
   4.98831
  1.380351  -0.001901   0.000868
 -0.002786   2.053855   0.002868
  0.001352   0.002790   2.049134
 Ta Zr Nb Hf
 10 8 10 8
Direct
  0.245246   0.162245   0.514766
  0.026140   0.320604   0.332839
  0.001038   0.337512   0.675317
  0.251481   0.482991   0.837594
  0.251097   0.855557   0.520440
  0.748376   0.850200   0.515507
  0.247158   0.843616   0.832657
  0.243901   0.814776   0.143369
  0.491607   0.343877   0.665059
  0.506934   0.328099   0.998212
  0.992804   0.003595   0.009639
  0.004367   0.997240   0.327586
  0.985708   0.323865   0.997330
  0.006374   0.661964   0.666557
  0.499092   0.995102   0.325725
  0.754193   0.503677   0.171754
  0.503647   0.665334   0.982693
  0.758771   0.841504   0.822503
  0.251185   0.174032   0.162852
  0.004515   0.002459   0.668171
  0.225642   0.487916   0.500581
  0.004633   0.666294   0.987916
  0.750753   0.183913   0.184040
  0.498124   0.000111   0.666175
  0.734881   0.169908   0.821542
  0.762837   0.810359   0.159413
  0.745641   0.488251   0.826178
  0.262501   0.168392   0.827978
  0.247301   0.506120   0.158193
  0.014814   0.684138   0.343715
  0.509029   0.003366   0.012946
  0.753317   0.167234   0.504413
  0.765493   0.487096   0.493790
  0.488733   0.679154   0.343050
  0.488908   0.660253   0.662089
  0.473749   0.329250   0.337412
