generated by pypospack
   4.98831
  1.397331  -0.000049   0.001303
 -0.000126   2.078086   0.003878
  0.001937   0.003851   2.027933
 Ta Zr Nb Hf
 5 12 11 8
Direct
  0.732835   0.502788   0.175943
  0.513003   0.667238   0.997357
  0.004899  -0.000481   0.333653
  0.029475   0.990036   0.669126
  0.509301   0.675612   0.332061
  0.255893   0.168295   0.165636
  0.978773   0.992899   0.002277
  0.765644   0.169065   0.504750
  0.257544   0.171098   0.841460
  0.755475   0.172873   0.819633
  0.260138   0.505037   0.174642
  0.529789   0.982344   0.993583
  0.735822   0.177600   0.176466
  0.487137   0.996247   0.347374
  0.739610   0.489508   0.817265
  0.481402   0.671568   0.670220
  0.473359   0.329440   0.650104
  0.746960   0.821637   0.178356
  0.229331   0.171844   0.498481
  0.494499   0.330086   0.349676
  0.269464   0.490967   0.837365
  0.994130   0.331971   0.321512
  0.031853   0.336069   0.670134
  0.982446   0.672143   0.319626
  0.223375   0.828598   0.487615
  0.256411   0.835718   0.852853
  0.509366   0.350652  -0.002225
  0.754748   0.832483   0.816028
  0.991169   0.346864   0.006047
  0.990009   0.662374   0.995784
  0.251468   0.828241   0.165379
  0.476780   0.995001   0.662810
  0.769707   0.832617   0.504698
  0.236303   0.501137   0.485906
  0.025291   0.671057   0.682956
  0.756596   0.499375   0.495449
