generated by pypospack                  
   4.98831000000000     
     1.3930030020078601    0.0055892371205439    0.0020268012760991
     0.0083060047334969    2.0490663067660488    0.0015334152289147
     0.0030811817317633    0.0014743930583862    2.0528215837475057
   Hf   Zr   Nb   Ta
     8    10    10     8
Direct
  0.0107616800680087  0.3352157840168825  0.0039908372895846
  0.9870588709926671  0.6606481065359433  0.9894321053007884
  0.2381429690891151  0.8116312348535545  0.1769515975465940
  0.7681961814765159  0.1718655818202134  0.5019845205097710
  0.4827511804338178  0.9956775217271712  0.6650751094621431
  0.7631992071802624  0.8386480595265682  0.1813746548382721
  0.7739619721682103  0.8408099632772109  0.4986493114034957
  0.2331415874396447  0.5003988518008118  0.4980015444868984
  0.7457690156722192  0.1687935668143133  0.8289763942966449
  0.0192967657541698 -0.0010363349984042  0.9952955912582283
  0.2328123450069610  0.1817091297098590  0.5015944621274533
  0.2556889984496570  0.5036876511996454  0.1746321408249330
  0.4881562047710857  0.9921787544456098  0.9915617034794476
  0.7406321013691217  0.1625177842846195  0.1701838431753204
  0.4736417826002777  0.9953186000563471  0.3423680653227698
  0.7411571077431526  0.4869511242445265  0.8221007303720140
  0.5096311311276333  0.6720013314947790  0.9928807904834590
  0.4936058672752937  0.6742309725557912  0.6609278587275583
  0.2541857749829036  0.4908725580665563  0.8268554110206612
  0.9845539480583311  0.3373464235983893  0.3171012258053709
  0.0115524952411787  0.3372710064764985  0.6795070695327399
  0.9743870154285453  0.6569531749902412  0.3380070399785834
  0.2233362993715416  0.8248038837924870  0.4984257181951862
  0.2354591007911507  0.8287127643655386  0.8267445444230487
  0.4839185747136788  0.3325834956451941 -0.0004564062885428
  0.7404805962251130  0.4991241203382871  0.1769033877594623
  0.7681869321206821  0.8400278568281065  0.8143344613001049
  0.0039041363865957  0.6717563138647495  0.6740018111819386
  0.2668142057666786  0.1798507827351337  0.1714238258014351
  0.0347666199828936  0.0065443787736880  0.3308672249654339
  0.0242041003227647  0.9944381700621794  0.6740650359391368
  0.2560283309381731  0.1758430126181868  0.8269061626866144
  0.5141540234884443  0.3456496141101691  0.3392141008923216
  0.7604003586637037  0.4952681286836427  0.5014428048017531
  0.4883255542084595  0.3327187114032352  0.6627165407004588
  0.5177459646913605  0.6589879202822826  0.3459507803989174
 
  0.00000000E+00  0.00000000E+00  0.00000000E+00
  0.00000000E+00  0.00000000E+00  0.00000000E+00
  0.00000000E+00  0.00000000E+00  0.00000000E+00
  0.00000000E+00  0.00000000E+00  0.00000000E+00
  0.00000000E+00  0.00000000E+00  0.00000000E+00
  0.00000000E+00  0.00000000E+00  0.00000000E+00
  0.00000000E+00  0.00000000E+00  0.00000000E+00
  0.00000000E+00  0.00000000E+00  0.00000000E+00
  0.00000000E+00  0.00000000E+00  0.00000000E+00
  0.00000000E+00  0.00000000E+00  0.00000000E+00
  0.00000000E+00  0.00000000E+00  0.00000000E+00
  0.00000000E+00  0.00000000E+00  0.00000000E+00
  0.00000000E+00  0.00000000E+00  0.00000000E+00
  0.00000000E+00  0.00000000E+00  0.00000000E+00
  0.00000000E+00  0.00000000E+00  0.00000000E+00
  0.00000000E+00  0.00000000E+00  0.00000000E+00
  0.00000000E+00  0.00000000E+00  0.00000000E+00
  0.00000000E+00  0.00000000E+00  0.00000000E+00
  0.00000000E+00  0.00000000E+00  0.00000000E+00
  0.00000000E+00  0.00000000E+00  0.00000000E+00
  0.00000000E+00  0.00000000E+00  0.00000000E+00
  0.00000000E+00  0.00000000E+00  0.00000000E+00
  0.00000000E+00  0.00000000E+00  0.00000000E+00
  0.00000000E+00  0.00000000E+00  0.00000000E+00
  0.00000000E+00  0.00000000E+00  0.00000000E+00
  0.00000000E+00  0.00000000E+00  0.00000000E+00
  0.00000000E+00  0.00000000E+00  0.00000000E+00
  0.00000000E+00  0.00000000E+00  0.00000000E+00
  0.00000000E+00  0.00000000E+00  0.00000000E+00
  0.00000000E+00  0.00000000E+00  0.00000000E+00
  0.00000000E+00  0.00000000E+00  0.00000000E+00
  0.00000000E+00  0.00000000E+00  0.00000000E+00
  0.00000000E+00  0.00000000E+00  0.00000000E+00
  0.00000000E+00  0.00000000E+00  0.00000000E+00
  0.00000000E+00  0.00000000E+00  0.00000000E+00
  0.00000000E+00  0.00000000E+00  0.00000000E+00
