generated by pypospack                  
   4.94975000000000     
     1.6379417412547825    0.0011918431177683    0.0014478395954527
     0.0011915290100651    1.6397286230031640   -0.0018987888734722
     0.0014565413390408   -0.0019454074969671    1.6279016324742741
   Au   Pt
    15    17
Direct
  0.9991672533529268  0.9995300695879764  0.9991621872015385
  0.2528689023721338  0.2511291380551027  0.0004053891695201
  0.0008663425215782  0.2492457780266712  0.2504989828911346
  0.2511381311415030  0.2503950007575386  0.5009069413471866
  0.2517638559914021  0.0001115444345588  0.7504554246993770
  0.9993807824483529  0.2516967421745019  0.7505733296764047
  0.2495097922530354  0.5005740076981002  0.2502315823677087
  0.0007406690785200  0.7488195313508232  0.2487302814688192
  0.5006841948567606  0.0002066952691371  0.0003765011352847
  0.7483821462129794  0.0001478081125911  0.2516117765458164
  0.7526520868465540  0.2502956268834556  0.4998497886749232
  0.4992256336374041  0.4999234307879835  0.9989862662072712
  0.7469975179572804  0.7490525564562466  0.9985214704306180
  0.7484239741363917  0.7490443268958152  0.4999060001983229
  0.7494221376755038  0.5015145984679618  0.7488191891078256
  0.2555866976856856  0.9944899631505102  0.2547638013071870
  0.0030336417578932  0.9935754626525476  0.5037011019444422
  0.9989677897434487  0.5016545616370013  0.9980196284950661
  0.2497699598363251  0.7479549349219644  0.9981519064807982
  0.0023939213448841  0.5055900330211018  0.5013099809807753
  0.2496650276234712  0.5070983954755381  0.7483013774502600
  0.0040217731568673  0.7490326193042675  0.7502164953822115
  0.7481084635964317  0.2527785721998186  0.0000927744170439
  0.5032495016160757  0.2510083081458849  0.2542285930457837
  0.4983937877142802  0.9986689878983281  0.5000092799293202
  0.7472186131895715  0.0001764097004674  0.7470806926332773
  0.5045220833485302  0.2495885096652517  0.7456706984149641
  0.7478168953906367  0.4960483375184696  0.2490786353860180
  0.4936913896182819  0.7490388158847527  0.2543582300833183
  0.4975632479219802  0.5011826356864599  0.4997774437963212
  0.4947364032294449  0.7500015621891470  0.7447532390252585
  0.2500363827438538  0.7504210359900291  0.5014530101061907
 
  0.00000000E+00  0.00000000E+00  0.00000000E+00
  0.00000000E+00  0.00000000E+00  0.00000000E+00
  0.00000000E+00  0.00000000E+00  0.00000000E+00
  0.00000000E+00  0.00000000E+00  0.00000000E+00
  0.00000000E+00  0.00000000E+00  0.00000000E+00
  0.00000000E+00  0.00000000E+00  0.00000000E+00
  0.00000000E+00  0.00000000E+00  0.00000000E+00
  0.00000000E+00  0.00000000E+00  0.00000000E+00
  0.00000000E+00  0.00000000E+00  0.00000000E+00
  0.00000000E+00  0.00000000E+00  0.00000000E+00
  0.00000000E+00  0.00000000E+00  0.00000000E+00
  0.00000000E+00  0.00000000E+00  0.00000000E+00
  0.00000000E+00  0.00000000E+00  0.00000000E+00
  0.00000000E+00  0.00000000E+00  0.00000000E+00
  0.00000000E+00  0.00000000E+00  0.00000000E+00
  0.00000000E+00  0.00000000E+00  0.00000000E+00
  0.00000000E+00  0.00000000E+00  0.00000000E+00
  0.00000000E+00  0.00000000E+00  0.00000000E+00
  0.00000000E+00  0.00000000E+00  0.00000000E+00
  0.00000000E+00  0.00000000E+00  0.00000000E+00
  0.00000000E+00  0.00000000E+00  0.00000000E+00
  0.00000000E+00  0.00000000E+00  0.00000000E+00
  0.00000000E+00  0.00000000E+00  0.00000000E+00
  0.00000000E+00  0.00000000E+00  0.00000000E+00
  0.00000000E+00  0.00000000E+00  0.00000000E+00
  0.00000000E+00  0.00000000E+00  0.00000000E+00
  0.00000000E+00  0.00000000E+00  0.00000000E+00
  0.00000000E+00  0.00000000E+00  0.00000000E+00
  0.00000000E+00  0.00000000E+00  0.00000000E+00
  0.00000000E+00  0.00000000E+00  0.00000000E+00
  0.00000000E+00  0.00000000E+00  0.00000000E+00
  0.00000000E+00  0.00000000E+00  0.00000000E+00
