generated by pypospack                  
   4.98831000000000     
     1.3879610364884643    0.0026040261289651   -0.0079644585886171
     0.0039799736298515    2.0703877129422268    0.0040356093970783
    -0.0116935307660984    0.0042001653445749    2.0461899879074896
   Zr   Hf   Ta   Nb
     8    11     8     9
Direct
  0.5020520397376308  0.3129281910394108  0.3222348563907195
  0.7369111171709536  0.4975087847126317  0.4974382470719404
  0.0060745333150118  0.0037752203604667  0.9990947429536627
  0.5051289504159613 -0.0002499220467442  0.3267621593579199
  0.2568085035453463  0.8387400633071305  0.5022256425891324
  0.0306890159848979  0.6713998071504236  0.0024669872936406
  0.0073558668081066  0.3286500387820089  0.6657717113109159
  0.2570138524232713  0.4975195105336752  0.4986406792654833
  0.4864003753567383  0.3306088421774956  0.0023005094030595
  0.7673409769931431  0.4958186757444711  0.1664543498642279
  0.2616289297730261  0.8230310264957078  0.8110693738259620
  0.7502872154949608  0.4977038389743558  0.8357100427498583
  0.2296203978456020  0.4929703761438771  0.1886641559511786
  0.9776825260951760  0.6860014069212740  0.3392096676643672
  0.4793098631288201  0.6658905272184135  0.0170650840337272
  0.5177838580656421  0.0196743050461206  0.6707093378939025
  0.9849591773757757  0.0100600561076602  0.6679567558235163
  0.7431709935559727  0.8212819109960866  0.8369338859495452
  0.4935894575666512  0.0107062024205980  0.0004692914004893
  0.7531117607418509  0.8357766638517631  0.1540255083648416
  0.2416617698292534  0.1570400138293864  0.4951623465334349
 -0.0066144928236485  0.3104169037634669  0.3396779673446582
  0.2632902685546183  0.5063133161611432  0.8174757299018703
  0.5132479064541962  0.6793433206441000  0.3206377761749155
  0.5107109246220428  0.6613665735140848  0.6622948595648880
  0.9928757597399257  0.6621957163516909  0.6609050595363958
  0.9928063797722022  0.9981461935995125  0.3319082840788515
  0.7575495828276696  0.1679999317633955  0.4925002647470206
  0.2239140874857639  0.1683008019297218  0.1697536406939426
  0.7547278677867836  0.1896395998628773  0.8413952404154944
  0.2461728209074714  0.1799474269239107  0.8330070622528788
  0.0142592760084281  0.3287418797949692  0.9954233021208491
  0.7388177922479793  0.8262387455792757  0.5089448444571327
  0.2459364661415985  0.8385625127031433  0.1840758382666914
  0.4931749810503108  0.3235175603200701  0.6757557053224443
  0.7705521980008582  0.1624499773224419  0.1658800894304308
 
  0.00000000E+00  0.00000000E+00  0.00000000E+00
  0.00000000E+00  0.00000000E+00  0.00000000E+00
  0.00000000E+00  0.00000000E+00  0.00000000E+00
  0.00000000E+00  0.00000000E+00  0.00000000E+00
  0.00000000E+00  0.00000000E+00  0.00000000E+00
  0.00000000E+00  0.00000000E+00  0.00000000E+00
  0.00000000E+00  0.00000000E+00  0.00000000E+00
  0.00000000E+00  0.00000000E+00  0.00000000E+00
  0.00000000E+00  0.00000000E+00  0.00000000E+00
  0.00000000E+00  0.00000000E+00  0.00000000E+00
  0.00000000E+00  0.00000000E+00  0.00000000E+00
  0.00000000E+00  0.00000000E+00  0.00000000E+00
  0.00000000E+00  0.00000000E+00  0.00000000E+00
  0.00000000E+00  0.00000000E+00  0.00000000E+00
  0.00000000E+00  0.00000000E+00  0.00000000E+00
  0.00000000E+00  0.00000000E+00  0.00000000E+00
  0.00000000E+00  0.00000000E+00  0.00000000E+00
  0.00000000E+00  0.00000000E+00  0.00000000E+00
  0.00000000E+00  0.00000000E+00  0.00000000E+00
  0.00000000E+00  0.00000000E+00  0.00000000E+00
  0.00000000E+00  0.00000000E+00  0.00000000E+00
  0.00000000E+00  0.00000000E+00  0.00000000E+00
  0.00000000E+00  0.00000000E+00  0.00000000E+00
  0.00000000E+00  0.00000000E+00  0.00000000E+00
  0.00000000E+00  0.00000000E+00  0.00000000E+00
  0.00000000E+00  0.00000000E+00  0.00000000E+00
  0.00000000E+00  0.00000000E+00  0.00000000E+00
  0.00000000E+00  0.00000000E+00  0.00000000E+00
  0.00000000E+00  0.00000000E+00  0.00000000E+00
  0.00000000E+00  0.00000000E+00  0.00000000E+00
  0.00000000E+00  0.00000000E+00  0.00000000E+00
  0.00000000E+00  0.00000000E+00  0.00000000E+00
  0.00000000E+00  0.00000000E+00  0.00000000E+00
  0.00000000E+00  0.00000000E+00  0.00000000E+00
  0.00000000E+00  0.00000000E+00  0.00000000E+00
  0.00000000E+00  0.00000000E+00  0.00000000E+00
