generated by pypospack                  
   4.98831000000000     
     1.3926438752468797   -0.0025419390183397    0.0101213558813326
    -0.0037856851230235    2.0498743863476436   -0.0001835596978847
     0.0149762317316497   -0.0004013249095379    2.0238135347452366
   Hf   Zr   Nb   Ta
     8     8    12     8
Direct
  0.2268287930213126  0.1693119464436119  0.4888488660419311
  0.2674048578737684  0.5033698659042753  0.1714802204274038
  0.9974250960272936  0.3416958318806681  0.9979511527058583
  0.9902433571960130  0.6640309381986744  0.0051805797380652
  0.2670757887960394  0.8266450586540040  0.1718103940088881
  0.4715139058401618  0.0014742207202698  0.6632354437061790
  0.7606178276769691  0.8316264943069076  0.5063142059681235
  0.0272309873672852  0.6649605764622072  0.6743452893801172
  0.2563427224176019  0.1695632792105366  0.1761199716838586
  0.0079191341591814  0.9967970913871345  0.0020430507533530
  0.7714710744150721  0.1633496465903744  0.5015835844762663
  0.7528372950650877  0.1664598816779655  0.8270644570120819
  0.7236827075732697  0.1658816184997622  0.1669825567702653
  0.4954646768505122  0.3367708789786509  0.6639288850561423
  0.7450707233810627  0.8341322659105512  0.8224807212715637
  0.2394419773481535  0.4934950622428386  0.4861230673596713
  0.2678977851946829  0.8297010567381314  0.8435595125262539
  0.5172581536369365  0.6653178617807926 -0.0029328340643776
  0.9916112076593718  0.9850217667860208  0.3215916656020643
  0.4997795255775758  0.9884076815750508  0.3485495153324826
  0.7341814494560701  0.8331171923405678  0.1756748141279372
  0.5205051078237870  0.3420789566811416  0.3467364842242895
  0.2673150050303142  0.5005558420487413  0.8408068740887732
  0.9722804005452360  0.3473238876276097  0.3136626654083361
  0.0058467340304407  0.3470857819124511  0.6832777919785055
  0.2486034326208999  0.8314182511922670  0.4881949838124280
  0.4941166296065613  0.3376117444202210  0.9875821217328344
  0.2480687847610912  0.1687554020842155  0.8356234391078519
  0.7379373194487583  0.5028925435089748  0.8322712169599346
  0.7268991346429809  0.5015556861870505  0.1680252622154889
  0.0381104120869716  0.9890087074939224  0.6756405650017453
  0.5204943133961979  0.6674789394408495  0.3419159978274724
  0.7571628421880897  0.5077200026347657  0.4979547205147026
  0.9804357131358422  0.6665061344384396  0.3229098491833530
  0.4889719584496697  0.6590797362728580  0.6646491809760769
  0.4819471656997448 -0.0001938322325007  0.9888137270840990
 
  0.00000000E+00  0.00000000E+00  0.00000000E+00
  0.00000000E+00  0.00000000E+00  0.00000000E+00
  0.00000000E+00  0.00000000E+00  0.00000000E+00
  0.00000000E+00  0.00000000E+00  0.00000000E+00
  0.00000000E+00  0.00000000E+00  0.00000000E+00
  0.00000000E+00  0.00000000E+00  0.00000000E+00
  0.00000000E+00  0.00000000E+00  0.00000000E+00
  0.00000000E+00  0.00000000E+00  0.00000000E+00
  0.00000000E+00  0.00000000E+00  0.00000000E+00
  0.00000000E+00  0.00000000E+00  0.00000000E+00
  0.00000000E+00  0.00000000E+00  0.00000000E+00
  0.00000000E+00  0.00000000E+00  0.00000000E+00
  0.00000000E+00  0.00000000E+00  0.00000000E+00
  0.00000000E+00  0.00000000E+00  0.00000000E+00
  0.00000000E+00  0.00000000E+00  0.00000000E+00
  0.00000000E+00  0.00000000E+00  0.00000000E+00
  0.00000000E+00  0.00000000E+00  0.00000000E+00
  0.00000000E+00  0.00000000E+00  0.00000000E+00
  0.00000000E+00  0.00000000E+00  0.00000000E+00
  0.00000000E+00  0.00000000E+00  0.00000000E+00
  0.00000000E+00  0.00000000E+00  0.00000000E+00
  0.00000000E+00  0.00000000E+00  0.00000000E+00
  0.00000000E+00  0.00000000E+00  0.00000000E+00
  0.00000000E+00  0.00000000E+00  0.00000000E+00
  0.00000000E+00  0.00000000E+00  0.00000000E+00
  0.00000000E+00  0.00000000E+00  0.00000000E+00
  0.00000000E+00  0.00000000E+00  0.00000000E+00
  0.00000000E+00  0.00000000E+00  0.00000000E+00
  0.00000000E+00  0.00000000E+00  0.00000000E+00
  0.00000000E+00  0.00000000E+00  0.00000000E+00
  0.00000000E+00  0.00000000E+00  0.00000000E+00
  0.00000000E+00  0.00000000E+00  0.00000000E+00
  0.00000000E+00  0.00000000E+00  0.00000000E+00
  0.00000000E+00  0.00000000E+00  0.00000000E+00
  0.00000000E+00  0.00000000E+00  0.00000000E+00
  0.00000000E+00  0.00000000E+00  0.00000000E+00
