generated by pypospack                  
   4.98831000000000     
     1.3855673502155061    0.0020758705122266    0.0001265126288633
     0.0030289394114883    2.0559392311569833   -0.0016880025855406
     0.0001178474347631   -0.0016589202253744    2.0699062757405615
   Ta   Hf   Zr   Nb
    10    10     9     7
Direct
  0.9917990862617825  0.3371756671261452  0.0000667547515676
  0.9985377587854826  0.0019428762737064  0.3356783124804514
  0.2553354939799773  0.4834890546790517  0.1422107211040954
  0.9929264042150568  0.3368017964094956  0.6936436549200212
  0.2461231420255275  0.4946938679381211  0.8362310712313646
  0.2368193055543859  0.8586728870684370  0.1753021682925912
  0.2428755263789366  0.8323095213469875  0.4966279505047176
  0.7506185222979559  0.1732896144676863  0.1520569992012220
  0.4827759933043037  0.9791570204416148  0.6648035358377586
  0.7459287292592924  0.4900609980241085  0.1529772675423419
  0.2494154779605938  0.1621410160689566  0.1572587362819667
  0.0110033204567530  0.9950580229644349  0.6647103315161645
  0.9935479327168948  0.3329611276763229  0.3171885545875686
  0.2305111197753672  0.4970795500418542  0.5173458080675306
  0.0253622037779562  0.6608301362902443  0.3165727101047341
  0.5176609162886581  0.9748912078261870  0.0070555349253428
  0.5103555629203682  0.0020691994511882  0.3280438694257660
  0.5027474627139153  0.6692649861253562  0.0013288085172966
  0.4814350144945023  0.6659702035028175  0.3173957670867014
  0.7590400162983674  0.8286355540119332  0.4958727848858315
  0.7311154078787542  0.1695182788173619  0.8361599327346199
  0.9834587142615637  0.9886406088081253  0.9966780264247482
  0.2561336262483245  0.1749270215540291  0.5094518160744311
  0.2645676726358560  0.1737332542416533  0.8345688832754243
 -0.0009613520730237  0.6682019691961075  0.0004265861093117
  0.7391522438982397  0.1713901393961454  0.5171733078199595
  0.5047221377383297  0.3359406011309474  0.3270844185751510
  0.7676699470609434  0.5054708038850946  0.5084176881404470
  0.4929807526124541  0.6700745582471024  0.6726190106325384
  0.7666426944432582  0.8315049539879548  0.1927398405595146
  0.0089432713794406  0.6738973341101526  0.6802808285304567
  0.2482003249353839  0.8319285887045066  0.8249734250948675
  0.5075622363189108  0.3431877113444204  0.0010810164450476
  0.5042275369350045  0.3585826539212446  0.6760637503887581
  0.7506975849224405  0.4954134774791531  0.8369778587091978
  0.7500752113380388  0.8310957374413531  0.8129262692205087
 
  0.00000000E+00  0.00000000E+00  0.00000000E+00
  0.00000000E+00  0.00000000E+00  0.00000000E+00
  0.00000000E+00  0.00000000E+00  0.00000000E+00
  0.00000000E+00  0.00000000E+00  0.00000000E+00
  0.00000000E+00  0.00000000E+00  0.00000000E+00
  0.00000000E+00  0.00000000E+00  0.00000000E+00
  0.00000000E+00  0.00000000E+00  0.00000000E+00
  0.00000000E+00  0.00000000E+00  0.00000000E+00
  0.00000000E+00  0.00000000E+00  0.00000000E+00
  0.00000000E+00  0.00000000E+00  0.00000000E+00
  0.00000000E+00  0.00000000E+00  0.00000000E+00
  0.00000000E+00  0.00000000E+00  0.00000000E+00
  0.00000000E+00  0.00000000E+00  0.00000000E+00
  0.00000000E+00  0.00000000E+00  0.00000000E+00
  0.00000000E+00  0.00000000E+00  0.00000000E+00
  0.00000000E+00  0.00000000E+00  0.00000000E+00
  0.00000000E+00  0.00000000E+00  0.00000000E+00
  0.00000000E+00  0.00000000E+00  0.00000000E+00
  0.00000000E+00  0.00000000E+00  0.00000000E+00
  0.00000000E+00  0.00000000E+00  0.00000000E+00
  0.00000000E+00  0.00000000E+00  0.00000000E+00
  0.00000000E+00  0.00000000E+00  0.00000000E+00
  0.00000000E+00  0.00000000E+00  0.00000000E+00
  0.00000000E+00  0.00000000E+00  0.00000000E+00
  0.00000000E+00  0.00000000E+00  0.00000000E+00
  0.00000000E+00  0.00000000E+00  0.00000000E+00
  0.00000000E+00  0.00000000E+00  0.00000000E+00
  0.00000000E+00  0.00000000E+00  0.00000000E+00
  0.00000000E+00  0.00000000E+00  0.00000000E+00
  0.00000000E+00  0.00000000E+00  0.00000000E+00
  0.00000000E+00  0.00000000E+00  0.00000000E+00
  0.00000000E+00  0.00000000E+00  0.00000000E+00
  0.00000000E+00  0.00000000E+00  0.00000000E+00
  0.00000000E+00  0.00000000E+00  0.00000000E+00
  0.00000000E+00  0.00000000E+00  0.00000000E+00
  0.00000000E+00  0.00000000E+00  0.00000000E+00
