generated by pypospack                  
   4.98831000000000     
     1.3891747413795064    0.0013414593788708    0.0017471309522522
     0.0020008939959618    2.0560609009250506    0.0011790738303235
     0.0026680663168204    0.0011111790338518    2.0459685893439334
   Hf   Nb   Ta   Zr
    11     9     9     7
Direct
  0.7220434399659195  0.8414737848566746  0.5124513523913209
  0.0078453539413631  0.0032577056929562  0.6749783903025208
  0.7515207989480925  0.4876814682484269  0.8291127020394060
  0.2404571226685589  0.5029888882574054  0.1522454707670058
  0.0191831310688395  0.6793455748058750  0.3449902305013380
  0.5082322033219714  0.0026544832538529  0.0035201395777970
  0.7471939041015588  0.1716238536708077  0.5025712076767804
  0.7701816758949751  0.4869367720534745  0.5029031686003138
  0.4845658321917087  0.6687163617618221  0.3354226863301562
  0.4800163579786334  0.6568706364585380  0.6679074820585695
  0.4796767922478264  0.3391253337733937  0.3363862043167936
  0.7511395188061047  0.8311436322600873  0.8261069810801444
  0.2502316612730051  0.1747568522940563  0.1697956529288295
  0.2195262218434025  0.4857700341845175  0.5033094028582750
 -0.0016130504405248  0.6748275505906557  0.9892139190550091
  0.7532537674052974  0.1816962512856168  0.1826466778692307
  0.4926835525280955  0.0071204008902082  0.6815872764307649
  0.7347121813892119  0.1797377701296614  0.8191488615666896
  0.7707489339958123  0.8156886713841252  0.1600689817175654
  0.2652162369613992  0.1699517975957995  0.8269103215839687
  0.2554661094063828  0.1637726529456493  0.5060898745299467
  0.0194575635484853  0.3232610364752665  0.3333372731684895
  0.0166543659924640  0.3231258631356078  0.6724306988577861
  0.2445481245877991  0.4907605249820157  0.8430827461485174
  0.2819434146059088  0.8557383899864123  0.5099709400732882
  0.2516859858137096  0.8380326952104962  0.8404963585482234
  0.2353145724355248  0.8215996531920716  0.1462244066981686
  0.4796833409435199  0.3390618403998602  0.6648486590318202
  0.4950033701741138  0.3204859174127033  0.9991143577842706
  0.9922850384353823  0.0027674658846024  0.9988822088831830
  0.0087772319655253  0.9984001152213930  0.3301283373757557
 -0.0011124282520193  0.3125447543859165  0.9981539124741223
  0.0142224165179524  0.6726153557653803  0.6642990341038107
  0.4997962234745142  0.0018386299436292  0.3151542801257616
  0.7551841579490182  0.5000621690094434  0.1662357015819240
  0.5042618763104445  0.6745741126015885  0.9902721009624587
 
  0.00000000E+00  0.00000000E+00  0.00000000E+00
  0.00000000E+00  0.00000000E+00  0.00000000E+00
  0.00000000E+00  0.00000000E+00  0.00000000E+00
  0.00000000E+00  0.00000000E+00  0.00000000E+00
  0.00000000E+00  0.00000000E+00  0.00000000E+00
  0.00000000E+00  0.00000000E+00  0.00000000E+00
  0.00000000E+00  0.00000000E+00  0.00000000E+00
  0.00000000E+00  0.00000000E+00  0.00000000E+00
  0.00000000E+00  0.00000000E+00  0.00000000E+00
  0.00000000E+00  0.00000000E+00  0.00000000E+00
  0.00000000E+00  0.00000000E+00  0.00000000E+00
  0.00000000E+00  0.00000000E+00  0.00000000E+00
  0.00000000E+00  0.00000000E+00  0.00000000E+00
  0.00000000E+00  0.00000000E+00  0.00000000E+00
  0.00000000E+00  0.00000000E+00  0.00000000E+00
  0.00000000E+00  0.00000000E+00  0.00000000E+00
  0.00000000E+00  0.00000000E+00  0.00000000E+00
  0.00000000E+00  0.00000000E+00  0.00000000E+00
  0.00000000E+00  0.00000000E+00  0.00000000E+00
  0.00000000E+00  0.00000000E+00  0.00000000E+00
  0.00000000E+00  0.00000000E+00  0.00000000E+00
  0.00000000E+00  0.00000000E+00  0.00000000E+00
  0.00000000E+00  0.00000000E+00  0.00000000E+00
  0.00000000E+00  0.00000000E+00  0.00000000E+00
  0.00000000E+00  0.00000000E+00  0.00000000E+00
  0.00000000E+00  0.00000000E+00  0.00000000E+00
  0.00000000E+00  0.00000000E+00  0.00000000E+00
  0.00000000E+00  0.00000000E+00  0.00000000E+00
  0.00000000E+00  0.00000000E+00  0.00000000E+00
  0.00000000E+00  0.00000000E+00  0.00000000E+00
  0.00000000E+00  0.00000000E+00  0.00000000E+00
  0.00000000E+00  0.00000000E+00  0.00000000E+00
  0.00000000E+00  0.00000000E+00  0.00000000E+00
  0.00000000E+00  0.00000000E+00  0.00000000E+00
  0.00000000E+00  0.00000000E+00  0.00000000E+00
  0.00000000E+00  0.00000000E+00  0.00000000E+00
