generated by pypospack
   4.98831
  1.384262  -0.000857   0.001977
 -0.001255   2.050616   0.000866
  0.002996   0.000790   2.047663
 Hf Nb Ta Zr
 11 9 9 7
Direct
  0.719609   0.848947   0.510071
 -0.000217   0.001161   0.674487
  0.752835   0.489258   0.830101
  0.241727   0.505394   0.154606
  0.006181   0.681461   0.347212
  0.507448   0.001563   0.003698
  0.748028   0.169498   0.502648
  0.771664   0.482113   0.503988
  0.492675   0.670618   0.338700
  0.489889   0.661164   0.665050
  0.478654   0.338338   0.337466
  0.752604   0.828131   0.828544
  0.250824   0.173496   0.170167
  0.219945   0.487891   0.503493
  0.001794   0.674261   0.989185
  0.752035   0.182867   0.180223
  0.499327   0.003558   0.676453
  0.733278   0.180450   0.820259
  0.770485   0.815388   0.158975
  0.268097   0.168900   0.825632
  0.251333   0.162001   0.506049
  0.020925   0.322804   0.333167
  0.019759   0.323047   0.673961
  0.245844   0.492620   0.841298
  0.279598   0.856612   0.511795
  0.252183   0.836846   0.835997
  0.235761   0.819212   0.149840
  0.478761   0.339388   0.665165
  0.494295   0.320680   0.998940
 -0.004024   0.002148  -0.001385
  0.002918   0.996534   0.330865
  0.001232   0.312421   0.997829
  0.004996   0.675473   0.661620
  0.501664   0.000870   0.318788
  0.754545   0.498899   0.165232
  0.503315   0.675997   0.989879
