generated by pypospack                  
   4.98831000000000     
     1.4015192021484877    0.0008529468567083   -0.0085695854517824
     0.0012908468310649    2.0600360900552568    0.0014132863142343
    -0.0126319896388442    0.0014087925970162    2.0721966758958414
   Ta   Nb   Zr   Hf
    11     4    11    10
Direct
  0.7350801808049885  0.8276721281561544  0.8275259553459050
  0.7516839347439616  0.8355432450122191  0.1682170529337282
  0.9892437318809003  0.9834648054425684  0.3244552211405277
  0.2824352685766525  0.4937872393043424  0.1421282630740368
  0.2445826618497566  0.8487915071860990  0.1727208727512499
  0.5144740719800903  0.9977952589457864  0.6679516596154588
  0.7226882704962181  0.5007833116342297  0.1530064155474815
  0.7841626826547536  0.1537763899565270  0.4855050625986687
  0.5033549997039033  0.6735828943600787  0.9983322339407029
  0.7132233047855014  0.1629033729007614  0.8456849288422172
  0.5073271991574025  0.6697770263058986  0.6826733995825124
  0.9951505867270899  0.6748607673173708  0.6946504849348419
  0.2589971457095034  0.8287989848753026  0.8230019990585457
  0.5130274515306211  0.3416877927283631  0.9983096705057057
  0.7358857245127257  0.5086326378353310  0.8362074988782036
  0.0037182671025042  0.3548096896396151  0.3206145412721997
  0.4892870796918222  0.6676392436002038  0.3218496651448866
  0.2278184972892203  0.1637827317206406  0.5012855662898360
  0.2745529180929313  0.1722604949618399  0.8277361412087944
 -0.0015896387212015  0.6684262454294687  0.0028226742796721
  0.5086344416990094  0.3339925142445124  0.3392209415015772
  0.7728076386435688  0.5225125141551636  0.5084768814768678
  0.7600413230377827  0.8254953985759642  0.5075333479531905
  0.2565522304254546  0.4973381809050885  0.8330278120482141
  0.2431922198935454  0.1611007738554329  0.1685497588596185
  0.2469181440655820  0.8279921816443212  0.5101426446269666
  0.9924780755461972  0.9948587897484014  0.9939340664599351
  0.9681696075772805  0.3221222704359659  0.6782792764988469
  0.7527108668590251  0.1632716683969100  0.1656441661896193
  0.9811116614969527  0.0047433204741653  0.6845825811375714
  0.2388981788053804  0.5101295887116052  0.5194024158959046
  0.0147751931086596  0.6642443889174378  0.3101689383653252
  0.4949653079203833  0.9808650984607695  0.9984961266372837
  0.5122631886775774  0.9980753965926761  0.3409587216229121
  0.5306416921617506  0.3282425820411908  0.6518116918123609
  0.9807318915125217  0.3362455655276067  0.9951003219686085
 
  0.00000000E+00  0.00000000E+00  0.00000000E+00
  0.00000000E+00  0.00000000E+00  0.00000000E+00
  0.00000000E+00  0.00000000E+00  0.00000000E+00
  0.00000000E+00  0.00000000E+00  0.00000000E+00
  0.00000000E+00  0.00000000E+00  0.00000000E+00
  0.00000000E+00  0.00000000E+00  0.00000000E+00
  0.00000000E+00  0.00000000E+00  0.00000000E+00
  0.00000000E+00  0.00000000E+00  0.00000000E+00
  0.00000000E+00  0.00000000E+00  0.00000000E+00
  0.00000000E+00  0.00000000E+00  0.00000000E+00
  0.00000000E+00  0.00000000E+00  0.00000000E+00
  0.00000000E+00  0.00000000E+00  0.00000000E+00
  0.00000000E+00  0.00000000E+00  0.00000000E+00
  0.00000000E+00  0.00000000E+00  0.00000000E+00
  0.00000000E+00  0.00000000E+00  0.00000000E+00
  0.00000000E+00  0.00000000E+00  0.00000000E+00
  0.00000000E+00  0.00000000E+00  0.00000000E+00
  0.00000000E+00  0.00000000E+00  0.00000000E+00
  0.00000000E+00  0.00000000E+00  0.00000000E+00
  0.00000000E+00  0.00000000E+00  0.00000000E+00
  0.00000000E+00  0.00000000E+00  0.00000000E+00
  0.00000000E+00  0.00000000E+00  0.00000000E+00
  0.00000000E+00  0.00000000E+00  0.00000000E+00
  0.00000000E+00  0.00000000E+00  0.00000000E+00
  0.00000000E+00  0.00000000E+00  0.00000000E+00
  0.00000000E+00  0.00000000E+00  0.00000000E+00
  0.00000000E+00  0.00000000E+00  0.00000000E+00
  0.00000000E+00  0.00000000E+00  0.00000000E+00
  0.00000000E+00  0.00000000E+00  0.00000000E+00
  0.00000000E+00  0.00000000E+00  0.00000000E+00
  0.00000000E+00  0.00000000E+00  0.00000000E+00
  0.00000000E+00  0.00000000E+00  0.00000000E+00
  0.00000000E+00  0.00000000E+00  0.00000000E+00
  0.00000000E+00  0.00000000E+00  0.00000000E+00
  0.00000000E+00  0.00000000E+00  0.00000000E+00
  0.00000000E+00  0.00000000E+00  0.00000000E+00
