generated by pypospack
   4.98831
  1.411997   0.000210  -0.008596
  0.000333   2.060599  -0.000742
 -0.012810  -0.000749   2.067892
 Ta Nb Zr Hf
 11 4 11 10
Direct
  0.743151   0.830359   0.829957
  0.755684   0.836267   0.169593
  0.991507   0.988872   0.323575
  0.284622   0.495243   0.143488
  0.241759   0.848953   0.173950
  0.514781   0.997498   0.667762
  0.722950   0.502536   0.152169
  0.778770   0.154360   0.486307
  0.504578   0.673819   0.997800
  0.709885   0.162051   0.847455
  0.508124   0.668360   0.672656
  0.995310   0.674918   0.694337
  0.249985   0.832475   0.821518
  0.512310   0.343617   0.998639
  0.740051   0.506286   0.842320
  0.001613   0.350099   0.316740
  0.493107   0.669116   0.325754
  0.227858   0.166124   0.501752
  0.275427   0.171317   0.828461
  0.000269   0.668738   0.001868
  0.509051   0.335883   0.341435
  0.787847   0.518653   0.504746
  0.770556   0.829153   0.503465
  0.255153   0.495102   0.834968
  0.250329   0.161213   0.167645
  0.236145   0.833162   0.508254
  0.991782   0.996858   0.995197
  0.965245   0.319950   0.681988
  0.743442   0.161853   0.166183
  0.977428   0.008302   0.685687
  0.228378   0.501960   0.516216
  0.017140   0.662180   0.306866
  0.494486   0.975409   0.997651
  0.508614   0.995332   0.342369
  0.530444   0.329937   0.653097
  0.982215   0.334051   0.998141
