generated by pypospack                  
   4.98831000000000     
     1.3617495699668736    0.0015492715857017    0.0009137949900733
     0.0023379864726070    2.0465388706214496   -0.0059862120156855
     0.0013909180471185   -0.0059483740685237    2.0446128712249889
   Ta   Zr   Nb   Hf
    10     6    12     8
Direct
  0.2325667911683130  0.4918037281700841  0.1769492732128697
  0.2476374726979314  0.5042732412191059  0.4977046379055950
  0.2452137233809633  0.5229522524348421  0.8230824010042355
  0.0061884279950229  0.6711739414568316  0.0005017476679766
  0.2237548022464105  0.8367923648478511  0.1781431687595874
  0.7536931701759725  0.5038493841973229  0.4925442792570288
  0.7753980142362392  0.8333982438601008  0.1784259726720301
 -0.0006555770573463  0.9852126255751494  0.0098871651537342
  0.7547040134752621  0.1694247472499535  0.1703420210219144
  0.2410077478237453  0.8308327753503085  0.8240703842912251
  0.2578350111605608  0.1449103978531207  0.8340745349145285
  0.0080822780894074  0.3426229510167051  0.9837028351935955
  0.5005349004510694  0.9834682930831050  0.0205645314143977
  0.5028260685561661  0.3367500789546467  0.6648728823860406
  0.4955889143480773  0.6671957901430486  0.0060743703439363
  0.7522871968492523  0.8352428125097524  0.8229028737450238
  0.5044140230188643 -0.0003153027774323  0.3291480746962773
  0.9937108759427070  0.0047301397384118  0.3329062932153690
  0.2524456992300267  0.1623695047359983  0.4898152034191645
  0.0024643364833192  0.0145522293699422  0.6588615974027431
  0.0072368012082676  0.6637580953757828  0.3332132451212388
  0.0021968266325994  0.6580152396688831  0.6687768858058786
  0.7464622422340079  0.1614691632717819  0.4905023338457678
  0.4975802386617988  0.0079685362550927  0.6509259257702581
  0.4968135278328837  0.6573035509948382  0.6657092599371176
  0.9985540904467426  0.3299342351187532  0.3476663975950620
  0.5002958297908098  0.3336699437956914  0.3407182014345010
  0.7564770552405371  0.5189669789656740  0.8272891664541520
  0.4954077244530968  0.3466898352923041  0.9943160203725905
  0.2429355516882336  0.1721116389286455  0.1729101003102710
 -0.0012021989775980  0.3335924945372278  0.6612894930687583
  0.2446538056914957  0.8352906765436829  0.5054224552809832
  0.7466565258504380  0.1506230588033335  0.8396822850107319
  0.4930274168696618  0.6661636586968220  0.3267445885558918
  0.7685841941330770  0.4903836767557472  0.1776024343147142
  0.7546204779719944  0.8328210180068986  0.5026609594448145
 
  0.00000000E+00  0.00000000E+00  0.00000000E+00
  0.00000000E+00  0.00000000E+00  0.00000000E+00
  0.00000000E+00  0.00000000E+00  0.00000000E+00
  0.00000000E+00  0.00000000E+00  0.00000000E+00
  0.00000000E+00  0.00000000E+00  0.00000000E+00
  0.00000000E+00  0.00000000E+00  0.00000000E+00
  0.00000000E+00  0.00000000E+00  0.00000000E+00
  0.00000000E+00  0.00000000E+00  0.00000000E+00
  0.00000000E+00  0.00000000E+00  0.00000000E+00
  0.00000000E+00  0.00000000E+00  0.00000000E+00
  0.00000000E+00  0.00000000E+00  0.00000000E+00
  0.00000000E+00  0.00000000E+00  0.00000000E+00
  0.00000000E+00  0.00000000E+00  0.00000000E+00
  0.00000000E+00  0.00000000E+00  0.00000000E+00
  0.00000000E+00  0.00000000E+00  0.00000000E+00
  0.00000000E+00  0.00000000E+00  0.00000000E+00
  0.00000000E+00  0.00000000E+00  0.00000000E+00
  0.00000000E+00  0.00000000E+00  0.00000000E+00
  0.00000000E+00  0.00000000E+00  0.00000000E+00
  0.00000000E+00  0.00000000E+00  0.00000000E+00
  0.00000000E+00  0.00000000E+00  0.00000000E+00
  0.00000000E+00  0.00000000E+00  0.00000000E+00
  0.00000000E+00  0.00000000E+00  0.00000000E+00
  0.00000000E+00  0.00000000E+00  0.00000000E+00
  0.00000000E+00  0.00000000E+00  0.00000000E+00
  0.00000000E+00  0.00000000E+00  0.00000000E+00
  0.00000000E+00  0.00000000E+00  0.00000000E+00
  0.00000000E+00  0.00000000E+00  0.00000000E+00
  0.00000000E+00  0.00000000E+00  0.00000000E+00
  0.00000000E+00  0.00000000E+00  0.00000000E+00
  0.00000000E+00  0.00000000E+00  0.00000000E+00
  0.00000000E+00  0.00000000E+00  0.00000000E+00
  0.00000000E+00  0.00000000E+00  0.00000000E+00
  0.00000000E+00  0.00000000E+00  0.00000000E+00
  0.00000000E+00  0.00000000E+00  0.00000000E+00
  0.00000000E+00  0.00000000E+00  0.00000000E+00
