generated by pypospack
   4.98831
  1.393496   0.001461  -0.007446
  0.002180   2.062406   0.002469
 -0.011008   0.002490   2.054992
 Ta Zr Hf Nb
 13 10 8 5
Direct
  0.499871   0.338110   0.342305
  0.729815   0.832713   0.834706
  0.735109   0.836777   0.157038
  0.989684   0.978538   0.315968
  0.277546   0.492757   0.144128
  0.265251   0.843392   0.157285
  0.515571  -0.000015   0.663318
  0.729474   0.496636   0.157609
  0.780155   0.153257   0.486092
  0.503580   0.668884   0.000270
  0.711301   0.160641   0.841474
  0.500892   0.667798   0.681280
  0.234578   0.519105   0.522369
  0.012439   0.353569   0.329209
  0.490494   0.663387   0.326019
  0.223359   0.153325   0.495275
  0.278604   0.167441   0.834060
  0.996988   0.668878   0.004289
  0.774801   0.522863   0.509184
  0.759774   0.825426   0.509212
  0.255338   0.497112   0.833447
  0.252013   0.162413   0.165252
  0.246210   0.826004   0.511149
  0.992302   0.998503   0.995174
  0.979540   0.325496   0.672193
  0.748573   0.166693   0.169088
  0.982222   0.004624   0.687818
  0.013285   0.667673   0.311382
  0.511571   0.994502   0.340019
  0.514608   0.333447   0.651478
  0.979227   0.333491   0.991788
  0.999346   0.673004   0.692637
  0.263935   0.834071   0.835019
  0.516139   0.342152   0.999161
  0.735757   0.508398   0.833713
  0.500641   0.988946   0.999596
