generated by pypospack
   4.98831
  1.411459   0.001372  -0.002899
  0.002139   2.050437  -0.000394
 -0.004334  -0.000422   2.080446
 Ta Hf Nb Zr
 8 9 6 13
Direct
  0.731681   0.831344   0.155230
  0.975356   0.990070   0.309375
  0.257728   0.851919   0.165557
  0.793462   0.154214   0.488449
  0.481770   0.677229   0.001510
  0.483727   0.659386   0.672661
  0.247580   0.511990   0.519781
  0.013584   0.665302   0.685057
  0.727725   0.508242   0.160369
  0.276563   0.171050   0.844502
  0.991333   0.999096   0.998991
  0.993606  -0.001418   0.693144
  0.016805   0.669276   0.316532
  0.520961   0.002026   0.331679
  0.515521   0.332804   0.657966
  0.971010   0.326282   0.991542
  0.723861   0.823117   0.834944
  0.744918   0.165070   0.164708
  0.721761   0.160838   0.841125
  0.266347   0.829700   0.834215
  0.540159   0.326286   0.993606
  0.739435   0.511756   0.833272
  0.503204   0.994955   0.007234
  0.517215   0.324938   0.350935
  0.988597   0.335193   0.670917
  0.511172   0.012874   0.654035
  0.274781   0.481294   0.150032
  0.998877   0.345864   0.332026
  0.476062   0.672057   0.330098
  0.214937   0.154106   0.493553
  0.007553   0.671609   0.002005
  0.756748   0.526181   0.506875
  0.761741   0.826240   0.506545
  0.260691   0.492425   0.835662
  0.258016   0.164993   0.161858
  0.235500   0.831698   0.504010
