generated by pypospack
   4.98831
  1.372615   0.000213   0.000504
  0.000330   2.058200  -0.006382
  0.000789  -0.006342   2.055513
 Hf Nb Zr Ta
 8 10 8 10
Direct
  0.476154   0.341920   0.984172
  0.245755   0.168495   0.177543
  0.003405   0.330666   0.657675
  0.244295   0.834137   0.501390
  0.755040   0.156668   0.840847
  0.760466   0.509950   0.836452
  0.504648   0.665566   0.330879
  0.763481   0.489386   0.165974
  0.502573   0.998879   0.330216
  0.994047   0.004723   0.333397
  0.251802   0.160385   0.490340
 -0.000490   0.010657   0.657549
  0.991780   0.664955   0.332850
  0.006582   0.662409   0.666303
  0.245199   0.830784   0.819602
  0.746072   0.161498   0.491326
  0.500600   0.008986   0.651862
  0.490620   0.660072   0.661278
  0.251816   0.138155   0.827866
  0.037566   0.337205   0.977670
  0.234180   0.491700   0.179318
  0.494710   0.980338   0.017731
  0.496090   0.333362   0.662815
  0.492947   0.673683   0.008691
  0.752990   0.833953   0.505092
  0.752656   0.835599   0.823139
  0.991719   0.331517   0.358790
  0.243672   0.508598   0.497556
  0.242681   0.525884   0.819883
  0.009030   0.681327   0.003896
  0.226386   0.837231   0.184830
  0.504160   0.338355   0.352045
  0.752196   0.505772   0.498878
  0.772012   0.836650   0.177229
  0.007380   0.978904   0.009142
  0.755781   0.171635   0.165772
