generated by pypospack                  
   4.98831000000000     
     1.3948471832200982    0.0023670113823609    0.0013053211589147
     0.0035043544021718    2.0688051871231137   -0.0006974226576479
     0.0018339326419717   -0.0007645067740618    2.0650867584197656
   Nb   Zr   Ta   Hf
     5    10    10    11
Direct
  0.7499448781330795  0.8378438255175641  0.1646504466808897
  0.0243693373345011  0.6746539727504212  0.6852586063265756
  0.2649683793999716  0.8275814529641530  0.8261504432017445
  0.5023728803482209  0.3479830317277562  0.9949262680684180
  0.7481799590982897  0.5055153808642050  0.8414592222239585
  0.5006371033895446  0.6636385992495643  0.3230009092055001
  0.7357234912799377  0.1565248872287658  0.8385023435028889
  0.0182391351558044  0.9867653122394436  0.0022235870807710
  0.2223570944837667  0.1692777901000238  0.4871907379086413
  0.2711829954799727  0.1759967256396041  0.8427526075438450
  0.0057714732323824  0.6661457473106991  0.0048822330696202
  0.5133283089031945  0.3354496350985481  0.3398154572748864
  0.7773323452768920  0.5252673158028294  0.5141761729338343
  0.4863700249772597  0.6631131377309781  0.6763076662502436
  0.7582044677186307  0.8344000005323708  0.5100839518044020
  0.9979256370610233  0.3487402527002306  0.9932796460734474
  0.9849839117591400  0.9907545255219987  0.3292437309265963
  0.2643594734409307  0.4870071894671587  0.1504737573436990
  0.2547132854782589  0.4952069896861763  0.8412020810455547
  0.2446980024127159  0.8353599088075027  0.1922768960632353
  0.2413300946705893  0.8280346255472396  0.4913958303756793
  0.4792623810231897  0.9987421757170796  0.6522826878111503
  0.7316106387333940  0.4916000241072852  0.1449630145114662
  0.7710590514119514  0.1493823573110717  0.4991279352942781
  0.4972757714320340  0.6654564860403126  0.0013131990959059
  0.9815212920011354  0.3300062488575570  0.6790591389277905
  0.7539968660784024  0.1690002118143529  0.1555283420698981
  0.2412574002565088  0.1768205961860642  0.1643934459906330
  0.0289386141271791 -0.0014836361287900  0.6701860051431687
  0.9750411116682380  0.3478340693869962  0.3256975317640141
  0.2285584050559069  0.5061467389357608  0.5081605835304046
  0.9966553491385390  0.6648098132938670  0.3142232019553701
  0.4801090655643717  0.9759204177473346  0.0143521943992284
  0.5074890389147728 -0.0004563550696817  0.3355457996459792
  0.5185796986143303  0.3346324364343822  0.6580215815700780
  0.7416590369459255  0.8363381088791697  0.8278957433862100
 
  0.00000000E+00  0.00000000E+00  0.00000000E+00
  0.00000000E+00  0.00000000E+00  0.00000000E+00
  0.00000000E+00  0.00000000E+00  0.00000000E+00
  0.00000000E+00  0.00000000E+00  0.00000000E+00
  0.00000000E+00  0.00000000E+00  0.00000000E+00
  0.00000000E+00  0.00000000E+00  0.00000000E+00
  0.00000000E+00  0.00000000E+00  0.00000000E+00
  0.00000000E+00  0.00000000E+00  0.00000000E+00
  0.00000000E+00  0.00000000E+00  0.00000000E+00
  0.00000000E+00  0.00000000E+00  0.00000000E+00
  0.00000000E+00  0.00000000E+00  0.00000000E+00
  0.00000000E+00  0.00000000E+00  0.00000000E+00
  0.00000000E+00  0.00000000E+00  0.00000000E+00
  0.00000000E+00  0.00000000E+00  0.00000000E+00
  0.00000000E+00  0.00000000E+00  0.00000000E+00
  0.00000000E+00  0.00000000E+00  0.00000000E+00
  0.00000000E+00  0.00000000E+00  0.00000000E+00
  0.00000000E+00  0.00000000E+00  0.00000000E+00
  0.00000000E+00  0.00000000E+00  0.00000000E+00
  0.00000000E+00  0.00000000E+00  0.00000000E+00
  0.00000000E+00  0.00000000E+00  0.00000000E+00
  0.00000000E+00  0.00000000E+00  0.00000000E+00
  0.00000000E+00  0.00000000E+00  0.00000000E+00
  0.00000000E+00  0.00000000E+00  0.00000000E+00
  0.00000000E+00  0.00000000E+00  0.00000000E+00
  0.00000000E+00  0.00000000E+00  0.00000000E+00
  0.00000000E+00  0.00000000E+00  0.00000000E+00
  0.00000000E+00  0.00000000E+00  0.00000000E+00
  0.00000000E+00  0.00000000E+00  0.00000000E+00
  0.00000000E+00  0.00000000E+00  0.00000000E+00
  0.00000000E+00  0.00000000E+00  0.00000000E+00
  0.00000000E+00  0.00000000E+00  0.00000000E+00
  0.00000000E+00  0.00000000E+00  0.00000000E+00
  0.00000000E+00  0.00000000E+00  0.00000000E+00
  0.00000000E+00  0.00000000E+00  0.00000000E+00
  0.00000000E+00  0.00000000E+00  0.00000000E+00
