generated by pypospack                  
   4.98831000000000     
     1.4148675256788816    0.0009736666894077    0.0000000000000000
     0.0009757540217299    1.3908619122719665    0.0000000000000000
     0.0000000000000000    0.0000000000000000    1.4037537292108173
   Ta   Hf   Zr   Nb
     3     4     8     1
Direct
  0.0000000000000000  0.0000000000000000  0.9583458398686666
  0.5000000000000000  0.0000000000000000  0.0337432560173030
  0.5000000000000000  0.5000000000000000  0.4730106224602613
  0.0000000000000000  0.0000000000000000  0.5334039770454182
  0.0000000000000000  0.5000000000000000  0.5238105332510795
  0.2802003140889126  0.7496891197483040  0.7636287473021935
  0.7197996859110875  0.2503108802516960  0.7636287473021935
  0.2357040243607942  0.2489925324334427  0.2381044552716445
  0.2807090220103483  0.2511552446590268  0.7624721455245423
  0.0000000000000000  0.5000000000000000  0.9606204477894904
  0.2351251814824804  0.7508768631771251  0.2363243563655566
  0.7648748185175196  0.2491231368228750  0.2363243563655566
  0.5000000000000000  0.0000000000000000  0.4748213280621810
  0.7642959756392061  0.7510074675665573  0.2381044552716445
  0.7192909779896517  0.7488447553409732  0.7624721455245423
  0.5000000000000000  0.5000000000000000  0.0411845865777181
 
  0.00000000E+00  0.00000000E+00  0.00000000E+00
  0.00000000E+00  0.00000000E+00  0.00000000E+00
  0.00000000E+00  0.00000000E+00  0.00000000E+00
  0.00000000E+00  0.00000000E+00  0.00000000E+00
  0.00000000E+00  0.00000000E+00  0.00000000E+00
  0.00000000E+00  0.00000000E+00  0.00000000E+00
  0.00000000E+00  0.00000000E+00  0.00000000E+00
  0.00000000E+00  0.00000000E+00  0.00000000E+00
  0.00000000E+00  0.00000000E+00  0.00000000E+00
  0.00000000E+00  0.00000000E+00  0.00000000E+00
  0.00000000E+00  0.00000000E+00  0.00000000E+00
  0.00000000E+00  0.00000000E+00  0.00000000E+00
  0.00000000E+00  0.00000000E+00  0.00000000E+00
  0.00000000E+00  0.00000000E+00  0.00000000E+00
  0.00000000E+00  0.00000000E+00  0.00000000E+00
  0.00000000E+00  0.00000000E+00  0.00000000E+00
