generated by pypospack                  
   4.98831000000000     
     1.4161791468024039    0.0008113986058543    0.0000000000000000
     0.0008159608278544    1.3925817340183675    0.0000000000000000
     0.0000000000000000    0.0000000000000000    1.4050189853801200
   Ta   Hf   Zr   Nb
     3     4     8     1
Direct
  0.0000000000000000  0.0000000000000000 -0.0417923339100285
  0.5000000000000000  0.0000000000000000  0.0338816999816487
  0.5000000000000000  0.5000000000000000  0.4728704318367322
  0.0000000000000000  0.0000000000000000  0.5335398628954297
  0.0000000000000000  0.5000000000000000  0.5238834388419877
  0.2802350919726021  0.7496494251023954  0.7636881890716283
  0.7197649080273976  0.2503505748976045  0.7636881890716283
  0.2359423044207138  0.2489872701578702  0.2379576273229156
  0.2807122314030919  0.2511012662105424  0.7625853330200473
  0.0000000000000000  0.5000000000000000 -0.0393779071809924
  0.2353014742140955  0.7507954764581815  0.2362481002689243
  0.7646985257859042  0.2492045235418186  0.2362481002689243
  0.5000000000000000  0.0000000000000000  0.4746786803819409
  0.7640576955792866  0.7510127298421295  0.2379576273229156
  0.7192877685969085  0.7488987337894575  0.7625853330200473
  0.5000000000000000  0.5000000000000000  0.0413576277862504
 
  0.00000000E+00  0.00000000E+00  0.00000000E+00
  0.00000000E+00  0.00000000E+00  0.00000000E+00
  0.00000000E+00  0.00000000E+00  0.00000000E+00
  0.00000000E+00  0.00000000E+00  0.00000000E+00
  0.00000000E+00  0.00000000E+00  0.00000000E+00
  0.00000000E+00  0.00000000E+00  0.00000000E+00
  0.00000000E+00  0.00000000E+00  0.00000000E+00
  0.00000000E+00  0.00000000E+00  0.00000000E+00
  0.00000000E+00  0.00000000E+00  0.00000000E+00
  0.00000000E+00  0.00000000E+00  0.00000000E+00
  0.00000000E+00  0.00000000E+00  0.00000000E+00
  0.00000000E+00  0.00000000E+00  0.00000000E+00
  0.00000000E+00  0.00000000E+00  0.00000000E+00
  0.00000000E+00  0.00000000E+00  0.00000000E+00
  0.00000000E+00  0.00000000E+00  0.00000000E+00
  0.00000000E+00  0.00000000E+00  0.00000000E+00
