generated by pypospack                  
   4.98831000000000     
     1.3906761197068367   -0.0037783811375822    0.0119038999600013
    -0.0055794973678448    2.0521738764527524   -0.0010567829851358
     0.0174651393349043   -0.0012601390067130    2.0367489054380399
   Ta   Hf   Nb   Zr
     8     9    11     8
Direct
  0.7390844572737032  0.4966072894759586  0.8318221666259854
  0.7299612963137735  0.4997801426269107  0.1713926378587736
  0.0367847023385261  0.9915578242346373  0.6708220369588213
  0.5179857748102350  0.6696317255138234  0.3406964192461122
  0.7553369979072415  0.5063486774073873  0.4952502092560365
  0.9849937966095729  0.6684046588759006  0.3274368179687460
  0.4997741914581156  0.6522711046709327  0.6605928384260448
  0.4881124487627757  0.0091805339068672  0.9962003470903460
  0.2269676671044465  0.1707995426743254  0.4857809087763449
  0.2666430063097540  0.5056689029387128  0.1693091387446438
  0.9987815239162903  0.3412719768502603  0.9978083224202297
  0.9785105827551025  0.6628889523644452  0.0060905372893089
  0.2674399876742969  0.8263669581513223  0.1672826961180295
  0.4671909652282365  0.0064537156936320  0.6581974980913979
  0.7579514425900544  0.8332322025126190  0.5061818013591736
  0.0125264408115299  0.6599906474744702  0.6700338162438477
  0.2749930753924965  0.8217435315844021  0.8462833896388660
  0.5341313249092511  0.6603368844678178  0.0021446673758582
  0.9934971890795259  0.9834561213009754  0.3228137768378058
  0.4982171420130542  0.9875604116580619  0.3458339386425719
  0.7376850403700058  0.8337441090640948  0.1789365101336294
  0.5174373062336453  0.3432412577446758  0.3440836162386329
  0.2647420643969303  0.5046306678624930  0.8390465263904942
  0.9744518323121381  0.3488305467035112  0.3148524658307055
  0.0061482048003702  0.3471287654710161  0.6833446053032276
  0.2490000584180324  0.8303128772984220  0.4894605805880886
  0.4920681629153102  0.3346319112700497  0.9867146894915410
  0.2463463414510670  0.1684598489499727  0.8366310093044235
  0.2554708663218124  0.1708018871308056  0.1767370076962582
  0.0020646127041633  0.9973331988525236  0.0062125099120538
  0.7716969538401647  0.1630338657038600  0.5012061462404291
  0.7528186272377008  0.1670043881061382  0.8264751296416816
  0.7245845808313218  0.1691610322463422  0.1703880213698236
  0.4933725385282072  0.3368256821542109  0.6649347216602831
  0.7410039238871783  0.8373247402982426  0.8221688017783805
  0.2422188724939637  0.4939884167602029  0.4868306934513892
 
  0.00000000E+00  0.00000000E+00  0.00000000E+00
  0.00000000E+00  0.00000000E+00  0.00000000E+00
  0.00000000E+00  0.00000000E+00  0.00000000E+00
  0.00000000E+00  0.00000000E+00  0.00000000E+00
  0.00000000E+00  0.00000000E+00  0.00000000E+00
  0.00000000E+00  0.00000000E+00  0.00000000E+00
  0.00000000E+00  0.00000000E+00  0.00000000E+00
  0.00000000E+00  0.00000000E+00  0.00000000E+00
  0.00000000E+00  0.00000000E+00  0.00000000E+00
  0.00000000E+00  0.00000000E+00  0.00000000E+00
  0.00000000E+00  0.00000000E+00  0.00000000E+00
  0.00000000E+00  0.00000000E+00  0.00000000E+00
  0.00000000E+00  0.00000000E+00  0.00000000E+00
  0.00000000E+00  0.00000000E+00  0.00000000E+00
  0.00000000E+00  0.00000000E+00  0.00000000E+00
  0.00000000E+00  0.00000000E+00  0.00000000E+00
  0.00000000E+00  0.00000000E+00  0.00000000E+00
  0.00000000E+00  0.00000000E+00  0.00000000E+00
  0.00000000E+00  0.00000000E+00  0.00000000E+00
  0.00000000E+00  0.00000000E+00  0.00000000E+00
  0.00000000E+00  0.00000000E+00  0.00000000E+00
  0.00000000E+00  0.00000000E+00  0.00000000E+00
  0.00000000E+00  0.00000000E+00  0.00000000E+00
  0.00000000E+00  0.00000000E+00  0.00000000E+00
  0.00000000E+00  0.00000000E+00  0.00000000E+00
  0.00000000E+00  0.00000000E+00  0.00000000E+00
  0.00000000E+00  0.00000000E+00  0.00000000E+00
  0.00000000E+00  0.00000000E+00  0.00000000E+00
  0.00000000E+00  0.00000000E+00  0.00000000E+00
  0.00000000E+00  0.00000000E+00  0.00000000E+00
  0.00000000E+00  0.00000000E+00  0.00000000E+00
  0.00000000E+00  0.00000000E+00  0.00000000E+00
  0.00000000E+00  0.00000000E+00  0.00000000E+00
  0.00000000E+00  0.00000000E+00  0.00000000E+00
  0.00000000E+00  0.00000000E+00  0.00000000E+00
  0.00000000E+00  0.00000000E+00  0.00000000E+00
