generated by pypospack                  
   4.98831000000000     
     1.3978509375509356    0.0084482117510652    0.0022119462373551
     0.0125562926680443    2.0474902517998279    0.0010018666898088
     0.0033589521024331    0.0009428566734884    2.0585016878827300
   Ta   Hf   Zr   Nb
     8     9    10     9
Direct
  0.2613275447829766  0.1812233749203977  0.1742203377055896
  0.0381438935109387  0.0043220134329510  0.3319390404269902
  0.0273677135144726  0.9944539759425464  0.6740930781487839
  0.2557607212378294  0.1834914805676590  0.8237123088924853
  0.5101973175642401  0.3442803631822339  0.3419353764752741
  0.7593140139060437  0.4957674910522589  0.5014735126092098
  0.4985372977613884  0.3279720457452326  0.6483797647118232
  0.5170092018151700  0.6598087829088649  0.3433297229221587
  0.0028762008956807  0.3334628984295475  0.0054360618613576
  0.2603750951672368  0.4932167808265456  0.8286626312342050
  0.9754865518250792  0.6637226740292491  0.9920915968641197
  0.2380589152584382  0.8105879678594257  0.1752929694717406
  0.7680080512035147  0.1670169502507551  0.4984956587057553
  0.4803286332686088  0.9961018207548143  0.6681542193488909
  0.7650487160978681  0.8432926961548128  0.1822962619022671
  0.7743492941987625  0.8424247217126470  0.4971440350674152
  0.2321824610564980  0.5010857146347953  0.5003821974206090
  0.7460109647914905  0.1680591047926725  0.8280231925281883
  0.0247168874618296  0.0001342082942468  0.9937098649621023
  0.2313362989293567  0.1798628222384597  0.5019274249515467
  0.2560231607835692  0.5020984497003671  0.1715753888228625
  0.4856765606583085  0.9974924222408683  0.9920023793900635
  0.7464257891888345  0.1610723994374291  0.1734419593081287
  0.4708214695575162  0.9926813086970254  0.3415919156492672
  0.7359505883476211  0.4886227447950957  0.8203825393552812
  0.5217691839163496  0.6752120405796657  0.9967244211371334
  0.4977909777987323  0.6788942785175125  0.6577714990331525
  0.9875953683369486  0.3398019542988314  0.3197338405735087
 -0.0021940869521887  0.3331593947653408  0.6754023169755671
  0.9736524309185765  0.6553921396667151  0.3372726034842602
  0.2250957259619198  0.8248309967036143  0.4988076670196341
  0.2354015919753460  0.8202823124427258  0.8283441963717773
  0.4921548560704230  0.3253160746499070  0.0105389528254979
  0.7395000148963153  0.4962677593371005  0.1784809904332205
  0.7697359739383106  0.8439212625686385  0.8151441714749740
 -0.0018273796440049  0.6746685738690483  0.6720789019351699
 
  0.00000000E+00  0.00000000E+00  0.00000000E+00
  0.00000000E+00  0.00000000E+00  0.00000000E+00
  0.00000000E+00  0.00000000E+00  0.00000000E+00
  0.00000000E+00  0.00000000E+00  0.00000000E+00
  0.00000000E+00  0.00000000E+00  0.00000000E+00
  0.00000000E+00  0.00000000E+00  0.00000000E+00
  0.00000000E+00  0.00000000E+00  0.00000000E+00
  0.00000000E+00  0.00000000E+00  0.00000000E+00
  0.00000000E+00  0.00000000E+00  0.00000000E+00
  0.00000000E+00  0.00000000E+00  0.00000000E+00
  0.00000000E+00  0.00000000E+00  0.00000000E+00
  0.00000000E+00  0.00000000E+00  0.00000000E+00
  0.00000000E+00  0.00000000E+00  0.00000000E+00
  0.00000000E+00  0.00000000E+00  0.00000000E+00
  0.00000000E+00  0.00000000E+00  0.00000000E+00
  0.00000000E+00  0.00000000E+00  0.00000000E+00
  0.00000000E+00  0.00000000E+00  0.00000000E+00
  0.00000000E+00  0.00000000E+00  0.00000000E+00
  0.00000000E+00  0.00000000E+00  0.00000000E+00
  0.00000000E+00  0.00000000E+00  0.00000000E+00
  0.00000000E+00  0.00000000E+00  0.00000000E+00
  0.00000000E+00  0.00000000E+00  0.00000000E+00
  0.00000000E+00  0.00000000E+00  0.00000000E+00
  0.00000000E+00  0.00000000E+00  0.00000000E+00
  0.00000000E+00  0.00000000E+00  0.00000000E+00
  0.00000000E+00  0.00000000E+00  0.00000000E+00
  0.00000000E+00  0.00000000E+00  0.00000000E+00
  0.00000000E+00  0.00000000E+00  0.00000000E+00
  0.00000000E+00  0.00000000E+00  0.00000000E+00
  0.00000000E+00  0.00000000E+00  0.00000000E+00
  0.00000000E+00  0.00000000E+00  0.00000000E+00
  0.00000000E+00  0.00000000E+00  0.00000000E+00
  0.00000000E+00  0.00000000E+00  0.00000000E+00
  0.00000000E+00  0.00000000E+00  0.00000000E+00
  0.00000000E+00  0.00000000E+00  0.00000000E+00
  0.00000000E+00  0.00000000E+00  0.00000000E+00
