generated by pypospack                  
   4.98831000000000     
     1.3823369424151890    0.0007558328989959    0.0008021907310943
     0.0012016364947984    2.0380481683785554   -0.0013552995680872
     0.0011953912492846   -0.0013928195022145    2.0512825551742448
   Nb   Zr   Ta   Hf
     7     7    13     9
Direct
  0.2394347770214124  0.5037061609785418  0.4948643728823675
  0.5042364674445426  0.9847159004756282  0.3283612096490172
  0.9962864679437951  0.9934747217997235  0.3307878724035748
  0.0078480377053026  0.0184835889905541  0.6610344323013582
  0.9860351626781463  0.6574520955085396  0.6573601511997040
  0.0152364677617768  0.3427159060466660  0.3480073898123137
  0.4832027760669677  0.3464180239108942  0.3480454969311041
  0.7522909996196111  0.1662826530442362  0.1710643000416568
  0.2385362816065804  0.8317911816496028  0.8247100155782030
  0.7534647776852615  0.4885299030182245  0.1718305289954505
  0.5005686716716781  0.6692495535571145  0.3350264208366981
  0.0205282783824802  0.3343705434938840  0.9849958106980969
  0.4944163997922172  0.3379279504976263  0.6728062145686985
  0.4981723819145320  0.6658190650156889  0.0020104559878516
  0.7640393032844863  0.8426942378776694  0.5014315746369723
  0.2392952791878382  0.4946627040764462  0.1733705620101596
  0.2246593258999425  0.5258626154994618  0.8294083146996239
  0.9973113847074329  0.6651449674840321  0.0090927024548730
  0.2247253375386986  0.8351628314249568  0.1767643843848252
  0.7579561105999337  0.4934280731291400  0.4924790611769426
  0.7740962620889056  0.8340999066124786  0.1697919892493550
  0.0167172898212764  0.9955992283098278  0.0091655408408714
  0.7689215469805291  0.5142330082888953  0.8338491552700978
  0.9942967290034409  0.6655785785564780  0.3323886080508813
  0.2592726235016408  0.1590608114856978  0.4940149280464167
  0.2537651669068443  0.1454074095003320  0.8268780132866961
  0.4980105799193695  0.9995479781291784  0.6609381120727520
  0.4892610984354165  0.9875343543374260  0.0125999858217578
  0.7419270298363921  0.1653434489326455  0.4913356534133448
  0.7640997062549238  0.8364901442921894  0.8281574328172898
  0.4817321885295751  0.3422333713716816  0.9824964973715385
  0.2530013804132799  0.1708097034475529  0.1814262253044703
  0.0079707124634833  0.3309150283761292  0.6659655335594573
  0.2343313235114764  0.8410151748547180  0.5003543595123801
  0.7538469469271410  0.1497920805576612  0.8372570579579516
  0.5105007268936662  0.6644490954684803  0.6599266361752488
 
  0.00000000E+00  0.00000000E+00  0.00000000E+00
  0.00000000E+00  0.00000000E+00  0.00000000E+00
  0.00000000E+00  0.00000000E+00  0.00000000E+00
  0.00000000E+00  0.00000000E+00  0.00000000E+00
  0.00000000E+00  0.00000000E+00  0.00000000E+00
  0.00000000E+00  0.00000000E+00  0.00000000E+00
  0.00000000E+00  0.00000000E+00  0.00000000E+00
  0.00000000E+00  0.00000000E+00  0.00000000E+00
  0.00000000E+00  0.00000000E+00  0.00000000E+00
  0.00000000E+00  0.00000000E+00  0.00000000E+00
  0.00000000E+00  0.00000000E+00  0.00000000E+00
  0.00000000E+00  0.00000000E+00  0.00000000E+00
  0.00000000E+00  0.00000000E+00  0.00000000E+00
  0.00000000E+00  0.00000000E+00  0.00000000E+00
  0.00000000E+00  0.00000000E+00  0.00000000E+00
  0.00000000E+00  0.00000000E+00  0.00000000E+00
  0.00000000E+00  0.00000000E+00  0.00000000E+00
  0.00000000E+00  0.00000000E+00  0.00000000E+00
  0.00000000E+00  0.00000000E+00  0.00000000E+00
  0.00000000E+00  0.00000000E+00  0.00000000E+00
  0.00000000E+00  0.00000000E+00  0.00000000E+00
  0.00000000E+00  0.00000000E+00  0.00000000E+00
  0.00000000E+00  0.00000000E+00  0.00000000E+00
  0.00000000E+00  0.00000000E+00  0.00000000E+00
  0.00000000E+00  0.00000000E+00  0.00000000E+00
  0.00000000E+00  0.00000000E+00  0.00000000E+00
  0.00000000E+00  0.00000000E+00  0.00000000E+00
  0.00000000E+00  0.00000000E+00  0.00000000E+00
  0.00000000E+00  0.00000000E+00  0.00000000E+00
  0.00000000E+00  0.00000000E+00  0.00000000E+00
  0.00000000E+00  0.00000000E+00  0.00000000E+00
  0.00000000E+00  0.00000000E+00  0.00000000E+00
  0.00000000E+00  0.00000000E+00  0.00000000E+00
  0.00000000E+00  0.00000000E+00  0.00000000E+00
  0.00000000E+00  0.00000000E+00  0.00000000E+00
  0.00000000E+00  0.00000000E+00  0.00000000E+00
