generated by pypospack
   4.98831
  1.385567   0.002076   0.000127
  0.003029   2.055939  -0.001688
  0.000118  -0.001659   2.069906
 Hf Nb Zr Ta
 11 7 9 9
Direct
  0.750619   0.173290   0.152057
  0.249415   0.162141   0.157259
  0.011003   0.995058   0.664710
  0.993548   0.332961   0.317189
  0.230511   0.497080   0.517346
  0.025362   0.660830   0.316573
  0.517661   0.974891   0.007056
  0.510356   0.002069   0.328044
  0.502747   0.669265   0.001329
  0.481435   0.665970   0.317396
  0.759040   0.828636   0.495873
  0.766643   0.831505   0.192740
  0.008943   0.673897   0.680281
  0.248200   0.831929   0.824973
  0.507562   0.343188   0.001081
  0.504228   0.358583   0.676064
  0.750698   0.495413   0.836978
  0.750075   0.831096   0.812926
  0.731115   0.169518   0.836160
  0.983459   0.988641   0.996678
  0.256134   0.174927   0.509452
  0.264568   0.173733   0.834569
 -0.000961   0.668202   0.000427
  0.739152   0.171390   0.517173
  0.504722   0.335941   0.327084
  0.767670   0.505471   0.508418
  0.492981   0.670075   0.672619
  0.991799   0.337176   0.000067
  0.998538   0.001943   0.335678
  0.255335   0.483489   0.142211
  0.992926   0.336802   0.693644
  0.246123   0.494694   0.836231
  0.236819   0.858673   0.175302
  0.242876   0.832310   0.496628
  0.482776   0.979157   0.664804
  0.745929   0.490061   0.152977
