generated by pypospack
   4.98831
  1.379011  -0.001774   0.003263
 -0.002550   2.034166   0.001731
  0.004875   0.001760   2.061043
 Zr Nb Ta Hf
 9 9 10 8
Direct
  0.754475   0.168469   0.182607
  0.243672   0.834349   0.830651
  0.755337   0.487591   0.175888
  0.500944   0.667638   0.335126
  0.257520   0.142232   0.829303
 -0.000663   0.332349   0.989076
  0.513937   0.995057   0.021861
  0.493035   0.348112   0.673848
  0.496438   0.663634   0.003711
  0.237690   0.503293   0.493496
  0.504412   0.994611   0.324859
  0.995870   0.998969   0.329125
  0.253179   0.161761   0.490232
  0.001987   0.014410   0.652656
 -0.002029   0.657234   0.658335
  0.506452   0.978669   0.648718
  0.006777   0.338121   0.344588
  0.488233   0.338435   0.344166
  0.769731   0.839229   0.498957
  0.240078   0.491786   0.174475
  0.226362   0.522635   0.835356
  0.004729   0.667517   0.011249
  0.229627   0.838024   0.174746
  0.760173   0.495954   0.492986
  0.772134   0.834917   0.172786
  0.984923  -0.000501   0.016040
  0.773195   0.520896   0.832886
  0.997884   0.666159   0.331145
  0.741844   0.166073   0.492865
  0.767582   0.833456   0.826834
  0.496600   0.342162   0.990100
  0.243493   0.173076   0.176860
  0.005456   0.334061   0.665456
  0.234024   0.839022   0.496117
  0.739262   0.145087   0.821841
  0.505631   0.665514   0.661049
