generated by pypospack                  
   4.98831000000000     
     1.3636561340973472    0.0011493800923532   -0.0000298692313810
     0.0017473590011103    2.0456748635919482   -0.0017983939446883
    -0.0000194265530740   -0.0017643741503023    2.0434776926817486
   Hf   Zr   Nb   Ta
     7     7    10    12
Direct
  0.7440069388329819  0.1626380776142712  0.4924511210628971
  0.7543766265856079  0.8314168294287895  0.8240122748985604
  0.4973014673981088  0.3406025006600135  0.9933402111021132
  0.2425561829815945  0.1727813173499862  0.1758894703612303
  0.0043944169994724  0.3389234059190175  0.6646673835848337
  0.2435786673996692  0.8332969537928423  0.5012032359629074
  0.7550564489542830  0.1475767128356259  0.8284102626333102
  0.7640972885110132  0.4877922425258855  0.1760160275606033
  0.5029253121749234  0.6694216362229042  0.3294923711697548
  0.2441151445747656  0.1413697860332606  0.8298907611547564
  0.0058329899387014  0.3410301417043068  0.9854898313238376
  0.5032107870517689  0.9940245047751955  0.0148194944328018
  0.4970650604057026  0.3423379515658402  0.6728882254842476
  0.4947996365075273  0.6653891682172917  0.0060513289564747
  0.5029200262185306  0.9944900755148234  0.3266600642309176
  0.9950434879405038  0.9977795674192430  0.3308762195435849
  0.2531887041969192  0.1611743883132656  0.4918175416560692
  0.0040259911746668  0.0002784807304151  0.6565418405996077
  0.9977663567488558  0.6675582457984837  0.3333276598379202
  0.0004669660326113  0.6626304051534713  0.6635703769512387
  0.4961920279819637  0.9922952717306267  0.6548388772637239
  0.5000796478096645  0.6634839085011103  0.6628858327935615
  0.0055314042301197  0.3355702307625571  0.3489308089246161
  0.4931775752684835  0.3374938194651999  0.3430168332674946
  0.7556733594776737  0.8370979700268542  0.5031326737257064
  0.2390383997293245  0.4898502113911423  0.1796083531553417
  0.2460008193354229  0.5077938081482556  0.4968387977251688
  0.2429235299572298  0.5266290835089797  0.8259800916351466
  0.0084394156406862  0.6707099445840186  0.0016220696887072
  0.2277039114907348  0.8382086172914480  0.1748846920669766
  0.7534019355976160  0.5019984771148923  0.4971153446537805
  0.7724301179445964  0.8364175728216968  0.1723205866774220
  0.9951090089255731  0.9876321402959896  0.0105524837887343
  0.7534399113447106  0.1677029007227163  0.1789226637964016
  0.2442039205112084  0.8310536462294510  0.8247070926242690
  0.7599245141267614  0.5235520058301386  0.8272240957052978
 
  0.00000000E+00  0.00000000E+00  0.00000000E+00
  0.00000000E+00  0.00000000E+00  0.00000000E+00
  0.00000000E+00  0.00000000E+00  0.00000000E+00
  0.00000000E+00  0.00000000E+00  0.00000000E+00
  0.00000000E+00  0.00000000E+00  0.00000000E+00
  0.00000000E+00  0.00000000E+00  0.00000000E+00
  0.00000000E+00  0.00000000E+00  0.00000000E+00
  0.00000000E+00  0.00000000E+00  0.00000000E+00
  0.00000000E+00  0.00000000E+00  0.00000000E+00
  0.00000000E+00  0.00000000E+00  0.00000000E+00
  0.00000000E+00  0.00000000E+00  0.00000000E+00
  0.00000000E+00  0.00000000E+00  0.00000000E+00
  0.00000000E+00  0.00000000E+00  0.00000000E+00
  0.00000000E+00  0.00000000E+00  0.00000000E+00
  0.00000000E+00  0.00000000E+00  0.00000000E+00
  0.00000000E+00  0.00000000E+00  0.00000000E+00
  0.00000000E+00  0.00000000E+00  0.00000000E+00
  0.00000000E+00  0.00000000E+00  0.00000000E+00
  0.00000000E+00  0.00000000E+00  0.00000000E+00
  0.00000000E+00  0.00000000E+00  0.00000000E+00
  0.00000000E+00  0.00000000E+00  0.00000000E+00
  0.00000000E+00  0.00000000E+00  0.00000000E+00
  0.00000000E+00  0.00000000E+00  0.00000000E+00
  0.00000000E+00  0.00000000E+00  0.00000000E+00
  0.00000000E+00  0.00000000E+00  0.00000000E+00
  0.00000000E+00  0.00000000E+00  0.00000000E+00
  0.00000000E+00  0.00000000E+00  0.00000000E+00
  0.00000000E+00  0.00000000E+00  0.00000000E+00
  0.00000000E+00  0.00000000E+00  0.00000000E+00
  0.00000000E+00  0.00000000E+00  0.00000000E+00
  0.00000000E+00  0.00000000E+00  0.00000000E+00
  0.00000000E+00  0.00000000E+00  0.00000000E+00
  0.00000000E+00  0.00000000E+00  0.00000000E+00
  0.00000000E+00  0.00000000E+00  0.00000000E+00
  0.00000000E+00  0.00000000E+00  0.00000000E+00
  0.00000000E+00  0.00000000E+00  0.00000000E+00
