generated by pypospack
   4.98831
  1.363520   0.001064  -0.000220
  0.001619   2.045996  -0.001266
 -0.000305  -0.001234   2.041957
 Hf Zr Nb Ta
 7 7 10 12
Direct
  0.743994   0.162217   0.492666
  0.754422   0.831326   0.823778
  0.498464   0.341405   0.994616
  0.243346   0.172051   0.175705
  0.003415   0.339322   0.664392
  0.243908   0.833106   0.501588
  0.754380   0.147329   0.827998
  0.768307   0.488219   0.177379
  0.502097   0.669098   0.328704
  0.244971   0.142082   0.830041
  0.004375   0.340584   0.985149
  0.504086   0.993951   0.015216
  0.497741   0.342503   0.672646
  0.494078   0.665343   0.006289
  0.503140   0.994513   0.326743
  0.994680   0.997735   0.330762
  0.253111   0.161101   0.492093
  0.004447   0.000121   0.656899
  0.998220   0.667877   0.333565
  0.000395   0.662495   0.663579
  0.495515   0.992621   0.654890
  0.500021   0.663207   0.662812
  0.006120   0.334766   0.349164
  0.493442   0.337687   0.341801
  0.755281   0.837317   0.503168
  0.235892   0.489781   0.178924
  0.246638   0.507736   0.497332
  0.243045   0.526417   0.825809
  0.008116   0.670578   0.001947
  0.227740   0.838794   0.174762
  0.753038   0.501619   0.494479
  0.772254   0.835012   0.172480
  0.994977   0.987377   0.010467
  0.752809   0.169819   0.178901
  0.244161   0.831096   0.824680
  0.759372   0.523797   0.828573
