generated by pypospack                  
   4.98831000000000     
     1.3822303823487583   -0.0002022741572140    0.0006491881808294
    -0.0002083695123680    2.0374562470272610   -0.0007405377345796
     0.0009710724400262   -0.0007743533676061    2.0501631446147295
   Ta   Hf   Zr   Nb
    12     9     7     8
Direct
  0.7623082509079586  0.8428976321308215  0.5024647332078362
  0.2385066718628356  0.4964138892018021  0.1753231725238198
  0.9998428808658355  0.6652581784684451  0.0074525283466956
  0.2247158560309759  0.8346154495888309  0.1759152741053384
  0.7588525674760370  0.4917481603369306  0.4926074624204625
  0.7735395451139959  0.8338460459865938  0.1701170777963694
  0.0149528543642025  0.9938880024737917  0.0098904688995315
  0.7653613528318808  0.5168180230413261  0.8329883179194590
  0.9939982972662814  0.6665808860583013  0.3332184724997599
  0.2573795141801709  0.1594709434978860  0.4948801755281317
  0.2455069697897114  0.1470212139148311  0.8266309198835735
  0.4969054108113244  0.0079675820773633  0.6632964369165382
  0.4941748851035566  0.3356456699549933  0.6704109450558061
  0.4894096279879604  0.9880028363607569  0.0096800616087471
  0.7432965706409725  0.1657176915904651  0.4910841749212563
  0.7625588268272548  0.8343127202485956  0.8260636187666605
  0.2539348800577644  0.1698510121222757  0.1810750374223019
  0.0071866951715121  0.3330931037014733  0.6673293426495408
  0.2369804687811390  0.8410513690909924  0.5021194323963436
  0.7594361764656515  0.1504442739583798  0.8371481489364220
  0.5082105960296844  0.6584735786356395  0.6589905388246129
  0.7512595848036133  0.1655287935430737  0.1709074246095838
  0.2400269693053472  0.8342729604056609  0.8229807697948631
  0.7544177949856231  0.4899915858014915  0.1717696707400220
  0.5017846286559083  0.6701057331624894  0.3350345350220750
  0.0194441676518412  0.3380313829181056  0.9859739441154443
  0.4962746352576906  0.6677688862120142  0.0029391817481548
  0.4841201769111061  0.3412217243093485  0.9833081172018789
  0.2392103380560331  0.5020757992429697  0.4939579968556260
  0.5041902905370790  0.9839930088867361  0.3294274908309223
  0.9957362666689797  0.9921913063345533  0.3306410874456751
  0.0063952111479024  0.0155908785376952  0.6598265525911819
  0.9902518051285920  0.6560311920256222  0.6586358586903394
  0.0157837544607711  0.3419278765648805  0.3467899315362014
  0.4827707436347056  0.3456791127999891  0.3497041595492104
  0.2312697342280781  0.5224814968148915  0.8294099386396049
 
  0.00000000E+00  0.00000000E+00  0.00000000E+00
  0.00000000E+00  0.00000000E+00  0.00000000E+00
  0.00000000E+00  0.00000000E+00  0.00000000E+00
  0.00000000E+00  0.00000000E+00  0.00000000E+00
  0.00000000E+00  0.00000000E+00  0.00000000E+00
  0.00000000E+00  0.00000000E+00  0.00000000E+00
  0.00000000E+00  0.00000000E+00  0.00000000E+00
  0.00000000E+00  0.00000000E+00  0.00000000E+00
  0.00000000E+00  0.00000000E+00  0.00000000E+00
  0.00000000E+00  0.00000000E+00  0.00000000E+00
  0.00000000E+00  0.00000000E+00  0.00000000E+00
  0.00000000E+00  0.00000000E+00  0.00000000E+00
  0.00000000E+00  0.00000000E+00  0.00000000E+00
  0.00000000E+00  0.00000000E+00  0.00000000E+00
  0.00000000E+00  0.00000000E+00  0.00000000E+00
  0.00000000E+00  0.00000000E+00  0.00000000E+00
  0.00000000E+00  0.00000000E+00  0.00000000E+00
  0.00000000E+00  0.00000000E+00  0.00000000E+00
  0.00000000E+00  0.00000000E+00  0.00000000E+00
  0.00000000E+00  0.00000000E+00  0.00000000E+00
  0.00000000E+00  0.00000000E+00  0.00000000E+00
  0.00000000E+00  0.00000000E+00  0.00000000E+00
  0.00000000E+00  0.00000000E+00  0.00000000E+00
  0.00000000E+00  0.00000000E+00  0.00000000E+00
  0.00000000E+00  0.00000000E+00  0.00000000E+00
  0.00000000E+00  0.00000000E+00  0.00000000E+00
  0.00000000E+00  0.00000000E+00  0.00000000E+00
  0.00000000E+00  0.00000000E+00  0.00000000E+00
  0.00000000E+00  0.00000000E+00  0.00000000E+00
  0.00000000E+00  0.00000000E+00  0.00000000E+00
  0.00000000E+00  0.00000000E+00  0.00000000E+00
  0.00000000E+00  0.00000000E+00  0.00000000E+00
  0.00000000E+00  0.00000000E+00  0.00000000E+00
  0.00000000E+00  0.00000000E+00  0.00000000E+00
  0.00000000E+00  0.00000000E+00  0.00000000E+00
  0.00000000E+00  0.00000000E+00  0.00000000E+00
