generated by pypospack                  
   4.98831000000000     
     1.3904121869634036    0.0012181022562838   -0.0002932364768980
     0.0012743166439191    1.4243991123867135    0.0050598167723122
    -0.0003056635341127    0.0048748871896793    1.4040824183228517
   Ta   Hf   Zr   Nb
     3     4     8     1
Direct
  0.2608987766438849  0.7934929000942322  0.7584490780566646
  0.4892395525309827 -0.0203651614140660  0.0315040770377058
  0.7427445441785296  0.7244505813001256  0.2321414325379043
  0.0094942430435808 -0.0218628607803112  0.0348510366149884
  0.2510262040391085  0.2625155846609196  0.2445776071535709
  0.2531467601479093  0.2163246053910952  0.7581327105279325
  0.7395369088911108  0.7886717660993120  0.7683495227764590
  0.0004928846662840 -0.0212258518574272  0.4812399115847837
  0.0103831818307415  0.5187460863687019 -0.0248474366888122
  0.0041727819053534  0.5190750732056526  0.5115020512939679
  0.7487670223844106  0.2680223743845097  0.2389560951645353
  0.5003441450798419 -0.0154605516077865  0.4724331844026448
  0.7470804491735989  0.2288570112329157  0.7582752711984176
  0.4874147153800969  0.5155955400760442 -0.0208697896533788
  0.4975078906941562  0.5157045665455557  0.5103837723349365
  0.2577499394104096  0.7274583363005267  0.2449214756576800
 
  0.00000000E+00  0.00000000E+00  0.00000000E+00
  0.00000000E+00  0.00000000E+00  0.00000000E+00
  0.00000000E+00  0.00000000E+00  0.00000000E+00
  0.00000000E+00  0.00000000E+00  0.00000000E+00
  0.00000000E+00  0.00000000E+00  0.00000000E+00
  0.00000000E+00  0.00000000E+00  0.00000000E+00
  0.00000000E+00  0.00000000E+00  0.00000000E+00
  0.00000000E+00  0.00000000E+00  0.00000000E+00
  0.00000000E+00  0.00000000E+00  0.00000000E+00
  0.00000000E+00  0.00000000E+00  0.00000000E+00
  0.00000000E+00  0.00000000E+00  0.00000000E+00
  0.00000000E+00  0.00000000E+00  0.00000000E+00
  0.00000000E+00  0.00000000E+00  0.00000000E+00
  0.00000000E+00  0.00000000E+00  0.00000000E+00
  0.00000000E+00  0.00000000E+00  0.00000000E+00
  0.00000000E+00  0.00000000E+00  0.00000000E+00
