generated by pypospack
   4.98831
  1.404547   0.000507   0.004284
  0.000945   2.074442  -0.001281
  0.006377  -0.001270   2.057013
 Nb Ta Zr Hf
 4 9 9 14
Direct
  0.014628   0.334620   0.668323
  0.225594   0.163810   0.166433
  0.750341   0.189884   0.817589
  0.245075   0.176531   0.824088
  0.753631   0.821585   0.175895
  0.237596   0.178032   0.508374
  0.037003   0.333866   0.343599
  0.236567   0.499209   0.829819
  0.240947   0.822799   0.150604
  0.487162   0.333734   0.666765
  0.259868   0.494659   0.502306
  0.491334   0.665288   0.314560
  0.480466   0.637206   0.676151
  0.500648   0.006857   0.001545
  0.746258   0.495875   0.495952
  0.986210   0.000072  -0.002191
  0.009045   0.324126   0.990075
  0.016229   0.673209   0.652822
  0.485486   0.002782   0.320220
  0.302239   0.826980   0.509731
  0.774776   0.178457   0.188267
  0.983980   0.673559   0.003611
  0.491424   0.326902   0.998140
  0.767521   0.499949   0.177697
  0.257187   0.823947   0.843430
  0.724644   0.831323   0.500165
  0.762160   0.497987   0.825832
  0.225817   0.505610   0.163281
  0.018268   0.679914   0.344182
  0.763735   0.176814   0.499401
  0.470253   0.327091   0.328097
  0.018781   0.988125   0.338391
  0.509463   0.660593   0.010876
  0.495609   0.026883   0.678061
  0.001969   0.002849   0.669865
  0.728088   0.818882   0.818046
