generated by pypospack
   4.98831
  1.389504   0.001747   0.002054
  0.002605   2.054724   0.000162
  0.003124   0.000099   2.045031
 Hf Zr Nb Ta
 13 6 8 9
Direct
  0.722073   0.841173   0.510986
  0.006874   0.002803   0.674010
  0.751463   0.487762   0.829145
  0.238645   0.502880   0.152896
  0.020231   0.681954   0.345794
  0.508319   0.002876   0.003163
  0.747601   0.170973   0.501900
  0.771209   0.487288   0.502243
  0.484033   0.667392   0.335670
  0.480283   0.656799   0.667830
  0.479816   0.339770   0.336781
  0.010683   0.998295   0.330117
  0.752528   0.181081   0.182961
  0.992218   0.002958   0.000096
  0.998793   0.312514   0.997935
  0.014065   0.672642   0.664964
  0.499461   0.001345   0.314514
  0.756101   0.500093   0.166774
  0.504031   0.674204   0.990704
  0.750731   0.831031   0.826537
  0.251554   0.174816   0.169006
  0.218550   0.485542   0.502884
  0.997785   0.675104   0.989522
  0.493747   0.007142   0.681636
  0.734678   0.180224   0.819185
  0.771023   0.816425   0.161525
  0.265025   0.169811   0.826645
  0.254881   0.163124   0.506021
  0.019738   0.320406   0.332963
  0.016475   0.322982   0.672383
  0.244041   0.490953   0.842977
  0.282240   0.856384   0.509874
  0.251684   0.838400   0.840734
  0.234839   0.822092   0.146507
  0.479915   0.339285   0.664482
  0.494652   0.321488   0.998630
