generated by pypospack                  
   4.98831000000000     
     1.3932185156015620   -0.0029737195556555    0.0037895825707513
    -0.0043188569330440    2.0432039277542460    0.0021003960923405
     0.0056659554349466    0.0020127269632619    2.0373654088971431
   Zr   Ta   Nb   Hf
     6    12     7    11
Direct
  0.7487198920336895  0.4952490586003866  0.4965458081547710
  0.9920805809412143  0.0006565833958404  0.0001224791212636
  0.0153300679635070  0.3172800442469828  0.9815696879569952
  0.0047091375258977  0.6663411714499504  0.6650890346049239
  0.4837740540026145 -0.0003208314801228  0.3218908227877662
  0.9993916503256646  0.0003906414908612  0.6667953123867594
  0.2522410114717440  0.1704514373290629  0.5121389984359396
  0.0370898723992980  0.3263338945123258  0.3438347251282684
  0.0152956311077840  0.3329871929120705  0.6678632632022405
  0.2605346135454691  0.4980970887515506  0.8295407016656009
  0.2874363253390782  0.8306404104801923  0.5125969671519552
  0.2513853798861626  0.8257107133344094  0.1526625983926014
  0.4846591227885390  0.3335482071456227  0.6660786741107730
  0.4850172791827891  0.3230805285422804  0.9933522810514948
  0.2511506534124521  0.4999282907457563  0.5063800727662328
  0.4789544752501165  0.6690084077376588  0.3257066693272397
  0.5060779594373109 -0.0005237329107789  0.0034955337417911
  0.4911466331125329  0.6569699508366914  0.6721459839494597
  0.7387779307612288  0.8354755693914482  0.8315088282292193
  0.2572172112406847  0.1665291174249935  0.1582365896848989
  0.9740226799593754  0.6795617010716973  0.0017536087651423
  0.5001671922038021  0.0074071594033541  0.6764600786080620
  0.7341161757900267  0.1703920440570330  0.8260009473960347
  0.7483073580856843  0.8351437159693573  0.1729996286926151
  0.2670926638163571  0.1601871881485654  0.8262293920359481
  0.7626307453850855  0.4933364289615930  0.1716413502125061
  0.2588568677584245  0.8295353580119397  0.8399416602538962
  0.7173036665791611  0.8314296555683649  0.5023470868229085
  0.7404662440771731  0.4896809833877994  0.8304041809148838
  0.2275753624872665  0.5078946001764744  0.1559111027888103
  0.0207225411394771  0.6844734985297545  0.3432127082960799
  0.7522610519146782  0.1760067878146810  0.4967614448739918
  0.4640625366049839  0.3380311291542318  0.3312116189227317
  0.0191973923820328  0.9976667246026694  0.3357193890951553
  0.7505312833333261  0.1804535115349001  0.1750807964416274
  0.5216887567553894  0.6709747696704013  0.0067679740294314
 
  0.00000000E+00  0.00000000E+00  0.00000000E+00
  0.00000000E+00  0.00000000E+00  0.00000000E+00
  0.00000000E+00  0.00000000E+00  0.00000000E+00
  0.00000000E+00  0.00000000E+00  0.00000000E+00
  0.00000000E+00  0.00000000E+00  0.00000000E+00
  0.00000000E+00  0.00000000E+00  0.00000000E+00
  0.00000000E+00  0.00000000E+00  0.00000000E+00
  0.00000000E+00  0.00000000E+00  0.00000000E+00
  0.00000000E+00  0.00000000E+00  0.00000000E+00
  0.00000000E+00  0.00000000E+00  0.00000000E+00
  0.00000000E+00  0.00000000E+00  0.00000000E+00
  0.00000000E+00  0.00000000E+00  0.00000000E+00
  0.00000000E+00  0.00000000E+00  0.00000000E+00
  0.00000000E+00  0.00000000E+00  0.00000000E+00
  0.00000000E+00  0.00000000E+00  0.00000000E+00
  0.00000000E+00  0.00000000E+00  0.00000000E+00
  0.00000000E+00  0.00000000E+00  0.00000000E+00
  0.00000000E+00  0.00000000E+00  0.00000000E+00
  0.00000000E+00  0.00000000E+00  0.00000000E+00
  0.00000000E+00  0.00000000E+00  0.00000000E+00
  0.00000000E+00  0.00000000E+00  0.00000000E+00
  0.00000000E+00  0.00000000E+00  0.00000000E+00
  0.00000000E+00  0.00000000E+00  0.00000000E+00
  0.00000000E+00  0.00000000E+00  0.00000000E+00
  0.00000000E+00  0.00000000E+00  0.00000000E+00
  0.00000000E+00  0.00000000E+00  0.00000000E+00
  0.00000000E+00  0.00000000E+00  0.00000000E+00
  0.00000000E+00  0.00000000E+00  0.00000000E+00
  0.00000000E+00  0.00000000E+00  0.00000000E+00
  0.00000000E+00  0.00000000E+00  0.00000000E+00
  0.00000000E+00  0.00000000E+00  0.00000000E+00
  0.00000000E+00  0.00000000E+00  0.00000000E+00
  0.00000000E+00  0.00000000E+00  0.00000000E+00
  0.00000000E+00  0.00000000E+00  0.00000000E+00
  0.00000000E+00  0.00000000E+00  0.00000000E+00
  0.00000000E+00  0.00000000E+00  0.00000000E+00
