generated by pypospack                  
   4.94975000000000     
     1.6145237820186089   -0.0046223251912836    0.0028571683846829
    -0.0045144428001777    1.6592169022873586   -0.0076491887839977
     0.0027912679290891   -0.0076801414711209    1.6455928796395665
   Au   Pt
    17    15
Direct
  0.7490728674624980  0.7527596573516540  0.0017016139358527
  0.9982185466811934  0.9998936164678811  0.9992332196955497
  0.2515460714492790  0.2489839026344988  0.0006250237412071
  0.2518189947736503  0.9985336230752716  0.2491517914513169
  0.9993529859155048  0.2479428812222678  0.2512902084947110
  0.0018213553474514  0.2475779458781926  0.7507545409016475
  0.2494766105796021  0.5008787365100081  0.2501059939792176
  0.0025201096958828  0.5006249491350605  0.4980642892209131
  0.2492598470863439  0.5011255438471460  0.7491271018410249
  0.0006238146944148  0.7520752558349806  0.7499524259211201
  0.7508452031306443  0.2485316874623792  0.5001684677781157
  0.5000056012271117  0.2490452475900535  0.7491231500043807
  0.4998620708749094  0.4999814907802831  0.0024629160585957
  0.4993854003860884  0.7513364346772000  0.2506144795591204
  0.7484485873061102  0.7508954776426913  0.4982550615103359
  0.7499754744951749  0.4987503569342465  0.7515673812668209
  0.4973181283953441  0.7520044212279636  0.7477762217004555
  0.0025448293295690  0.9949400067727042  0.5001937016039286
  0.2546882816307727  0.2438997020072450  0.4985973975485225
  0.2535199677513179  0.9971941940682207  0.7469398768004767
  0.9968247881530083  0.5039237438103424  0.0066750662180671
  0.2470902714029258  0.7534883423531474  0.0002331523049442
  0.9978102496230729  0.7509685058884928  0.2498606908035103
  0.2496767395199151  0.7537555777990016  0.4979964472648676
  0.5031179286190284  0.0033925250139375  0.9990083177549766
  0.7478615451770503  0.2483150672778187  0.0047648756534722
  0.7469828520215169  0.0014501242201150  0.2522973669770748
  0.5063014084689684  0.2477328348292204  0.2529737277694756
  0.4989745604194132  0.0018723890406307  0.5002465019160213
  0.7478141794513926  0.0036342075174501  0.7493207821387352
  0.7505002758186561  0.4978546823949111  0.2481179597251545
  0.4967394531121772  0.4966418687349641  0.4928022484603823
 
  0.00000000E+00  0.00000000E+00  0.00000000E+00
  0.00000000E+00  0.00000000E+00  0.00000000E+00
  0.00000000E+00  0.00000000E+00  0.00000000E+00
  0.00000000E+00  0.00000000E+00  0.00000000E+00
  0.00000000E+00  0.00000000E+00  0.00000000E+00
  0.00000000E+00  0.00000000E+00  0.00000000E+00
  0.00000000E+00  0.00000000E+00  0.00000000E+00
  0.00000000E+00  0.00000000E+00  0.00000000E+00
  0.00000000E+00  0.00000000E+00  0.00000000E+00
  0.00000000E+00  0.00000000E+00  0.00000000E+00
  0.00000000E+00  0.00000000E+00  0.00000000E+00
  0.00000000E+00  0.00000000E+00  0.00000000E+00
  0.00000000E+00  0.00000000E+00  0.00000000E+00
  0.00000000E+00  0.00000000E+00  0.00000000E+00
  0.00000000E+00  0.00000000E+00  0.00000000E+00
  0.00000000E+00  0.00000000E+00  0.00000000E+00
  0.00000000E+00  0.00000000E+00  0.00000000E+00
  0.00000000E+00  0.00000000E+00  0.00000000E+00
  0.00000000E+00  0.00000000E+00  0.00000000E+00
  0.00000000E+00  0.00000000E+00  0.00000000E+00
  0.00000000E+00  0.00000000E+00  0.00000000E+00
  0.00000000E+00  0.00000000E+00  0.00000000E+00
  0.00000000E+00  0.00000000E+00  0.00000000E+00
  0.00000000E+00  0.00000000E+00  0.00000000E+00
  0.00000000E+00  0.00000000E+00  0.00000000E+00
  0.00000000E+00  0.00000000E+00  0.00000000E+00
  0.00000000E+00  0.00000000E+00  0.00000000E+00
  0.00000000E+00  0.00000000E+00  0.00000000E+00
  0.00000000E+00  0.00000000E+00  0.00000000E+00
  0.00000000E+00  0.00000000E+00  0.00000000E+00
  0.00000000E+00  0.00000000E+00  0.00000000E+00
  0.00000000E+00  0.00000000E+00  0.00000000E+00
