generated by pypospack
   4.98831
  1.382340   0.000190  -0.001522
  0.000306   2.059101  -0.005258
 -0.002247  -0.005217   2.057208
 Ta Zr Nb Hf
 8 9 9 10
Direct
  0.984891   0.337062   0.357198
  0.243525   0.507914   0.497193
  0.242375   0.522838   0.824465
  0.003014   0.670516   0.001110
  0.210522   0.824446   0.184867
  0.511049   0.341559   0.347568
  0.751102   0.507145   0.502189
  0.785694   0.822488   0.172509
  0.281475   0.146102   0.823907
  0.021429   0.337455   0.982144
  0.234413   0.495183   0.180011
  0.494641   0.978498   0.020032
  0.483873   0.346234   0.995835
  0.495714   0.336908   0.657376
  0.495248   0.671562   0.009921
  0.760350   0.833266   0.508095
  0.750688   0.835063   0.822413
  0.991057   0.004593   0.334260
  0.247174   0.162611   0.489690
  0.008697   0.012154   0.663999
  0.987944   0.657105   0.335756
  0.007719   0.660920   0.668978
  0.244132   0.826921   0.817960
  0.753561   0.162506   0.493006
  0.499978   0.008002   0.641658
  0.486998   0.659328   0.661644
  0.013659   0.988914   0.000207
  0.241656   0.175525   0.184054
  0.007228   0.331805   0.660376
  0.237814   0.831960   0.502225
  0.756533   0.182359   0.167456
  0.505581   0.992361   0.328560
  0.739148   0.156515   0.831840
  0.754515   0.512282   0.828696
  0.506751   0.667032   0.329465
  0.759851   0.492869   0.173338
