generated by pypospack
   4.98831
  1.379294  -0.002588  -0.001848
 -0.003623   2.039689   0.003255
 -0.002737   0.003205   2.043771
 Zr Nb Ta Hf
 9 10 11 6
Direct
  0.768303   0.833150   0.838522
  0.758401   0.835409   0.168172
  0.492396   0.338350   0.000635
  0.007773   0.661184   0.352628
  0.229795   0.841829   0.842649
  0.744047   0.512050   0.172433
  0.002254   0.330876   0.997436
  0.489779   0.657945   0.986640
  0.257515   0.157007   0.174209
  0.012848   0.645757   0.994898
  0.496120   0.664430   0.347360
  0.263960   0.493809   0.500774
  0.509269   0.000123   0.336277
  0.995214   0.003282   0.344606
 -0.000517   0.659766   0.659399
  0.234418   0.504270   0.826118
  0.485882   0.338776   0.663321
  0.742872   0.158784   0.172098
  0.725686   0.165073   0.501219
  0.509201   0.004665   0.002639
  0.260890   0.841878   0.489168
  0.742073   0.840234   0.494669
  0.259143   0.507546   0.175084
  0.737145   0.492322   0.510384
  0.991064   0.027328   0.001184
  0.757229   0.497520   0.817048
  0.276486   0.163768   0.492926
  0.270296   0.153650   0.831613
  0.493965   0.989017   0.658146
  0.503578   0.335557   0.336042
  0.247448   0.834216   0.169537
  0.009790   0.328686   0.659633
  0.725119   0.166955   0.822350
  0.496220   0.672487   0.664247
  0.006225   0.010364   0.652147
 -0.001891   0.331947   0.343788
