AuPt
1
  8.06632783   0.00158436  -0.00008246
  0.00156588   8.18459806  -0.01913930
 -0.00008513  -0.01912072   8.16936986
Au   Pt   
11  21
Direct
  0.25004069   0.74971625   0.49241395
  0.99963242   0.25317529   0.75523774
  0.49967883   0.49842115   0.49871507
  0.00046979   0.00131197   0.49928628
  0.74950940   0.74790035   0.49854874
  0.24991868   0.00357123   0.74774003
  0.75260076   0.25320497   0.99907386
  0.49756700   0.25131533   0.24889340
  0.74948501   0.49358360   0.75890006
  0.99866467   0.49553239   0.00244158
  0.74969162   0.74903784   0.00078650
  0.99760953   0.74877264   0.74931841
  0.00013614   0.49928397   0.49886224
  0.24813434   0.25349973   0.00153957
  0.49668901   0.74409797   0.24863787
  0.24881025   0.50012235   0.24699502
  0.24642645   0.25075846   0.49903594
  0.74932345   0.00752296   0.75242818
  0.75280685   0.50000511   0.24326979
  0.00567534   0.25428120   0.24623791
  0.75192378   0.25254194   0.50112212
  0.00132466   0.00195307   0.00070978
  0.49987121   0.25327696   0.75628550
  0.49856806   0.00233451   0.00149284
  0.49849441   0.00118365   0.49952020
  0.50169245   0.49594858   0.00208381
  0.24706930   0.99833187   0.25211435
  0.25028239   0.74723418   0.00116606
  0.50194817   0.74919910   0.74901884
  0.00332266   0.74487821   0.24879907
  0.75240827  -0.00023250   0.24885696
  0.25022442   0.49823564   0.75046836
