generated by pypospack                  
   4.98831000000000     
     1.3694403573811011   -0.0005462742181980   -0.0007209559515755
    -0.0005869973536868    2.0413127228467536    0.0030885617166565
    -0.0010400834898243    0.0030303492114426    2.0450506914629218
   Hf   Nb   Ta   Zr
     5    10    12     9
Direct
  0.2472772546903678  0.8365006799732023  0.1666219447390613
  0.0093830291269061  0.3297270637287810  0.6642183009296100
  0.7213836985695801  0.1631377877464269  0.8193303320157941
  0.4963263001464147  0.6706279124724402  0.6602153202583925
  0.0081719289214704  0.0073685427436921  0.6541966474175633
  0.0126546059181955  0.6460357588977873  0.9950492876656027
  0.4967091898983847  0.6629955403869401  0.3457968716593094
  0.2559317824343866  0.4928648589895956  0.4988521457315592
  0.5079281057745602  0.0028633422288696  0.3356643968182240
  0.9944169146026482  0.0004593694023374  0.3436786131919464
  0.0007873934952979  0.6597139768013687  0.6590315850410090
  0.0016657674717054  0.3339146988420951  0.3469413100122010
  0.2374725503333047  0.5059986506865684  0.8264567132374719
  0.4874681907404432  0.3398802645457916  0.6622656481987952
  0.7484280779247454  0.1626500819997398  0.1768977433854085
  0.5092917777334395  0.0084314494373676  0.0066716199490570
  0.2626491195400764  0.8427519194297231  0.4877599665638395
  0.7405796212458916  0.8416259903061424  0.4936188365180159
  0.2472674530781034  0.4983768536230558  0.1783473686048716
  0.7435810560494455  0.4901228604048336  0.5042074029203517
  0.9901566823083726  0.0267252012076248  0.9984551976466662
  0.7580040573641534  0.5039226790530390  0.8180644790525390
  0.2642532593970366  0.1669924367589184  0.4922571210093997
  0.2742923977688236  0.1537177569175969  0.8306833390963679
  0.4929086735028363  0.9904259071313560  0.6543492446520520
  0.5000960540473927  0.3345525443799504  0.3395365824071976
  0.7374669853150091  0.1685568151866844  0.4987180196405842
  0.7627507301044235  0.8303791691041053  0.8385613830561809
  0.7561343148384938  0.8364092782980304  0.1657739006356957
  0.4959190134403062  0.3380819320403117  0.0002078317530737
  0.0058814716376840  0.6666922386811280  0.3518450710667761
  0.2374648525272852  0.8399108697536700  0.8436582040631784
  0.7548459580092439  0.5013033690090722  0.1786774347990655
  0.0004356479386810  0.3301258706772062  0.9937026519720655
  0.4907280837523495  0.6514000763235911  0.9934782213884080
  0.2492850003525557  0.1647672528309588  0.1762102629026560
 
  0.00000000E+00  0.00000000E+00  0.00000000E+00
  0.00000000E+00  0.00000000E+00  0.00000000E+00
  0.00000000E+00  0.00000000E+00  0.00000000E+00
  0.00000000E+00  0.00000000E+00  0.00000000E+00
  0.00000000E+00  0.00000000E+00  0.00000000E+00
  0.00000000E+00  0.00000000E+00  0.00000000E+00
  0.00000000E+00  0.00000000E+00  0.00000000E+00
  0.00000000E+00  0.00000000E+00  0.00000000E+00
  0.00000000E+00  0.00000000E+00  0.00000000E+00
  0.00000000E+00  0.00000000E+00  0.00000000E+00
  0.00000000E+00  0.00000000E+00  0.00000000E+00
  0.00000000E+00  0.00000000E+00  0.00000000E+00
  0.00000000E+00  0.00000000E+00  0.00000000E+00
  0.00000000E+00  0.00000000E+00  0.00000000E+00
  0.00000000E+00  0.00000000E+00  0.00000000E+00
  0.00000000E+00  0.00000000E+00  0.00000000E+00
  0.00000000E+00  0.00000000E+00  0.00000000E+00
  0.00000000E+00  0.00000000E+00  0.00000000E+00
  0.00000000E+00  0.00000000E+00  0.00000000E+00
  0.00000000E+00  0.00000000E+00  0.00000000E+00
  0.00000000E+00  0.00000000E+00  0.00000000E+00
  0.00000000E+00  0.00000000E+00  0.00000000E+00
  0.00000000E+00  0.00000000E+00  0.00000000E+00
  0.00000000E+00  0.00000000E+00  0.00000000E+00
  0.00000000E+00  0.00000000E+00  0.00000000E+00
  0.00000000E+00  0.00000000E+00  0.00000000E+00
  0.00000000E+00  0.00000000E+00  0.00000000E+00
  0.00000000E+00  0.00000000E+00  0.00000000E+00
  0.00000000E+00  0.00000000E+00  0.00000000E+00
  0.00000000E+00  0.00000000E+00  0.00000000E+00
  0.00000000E+00  0.00000000E+00  0.00000000E+00
  0.00000000E+00  0.00000000E+00  0.00000000E+00
  0.00000000E+00  0.00000000E+00  0.00000000E+00
  0.00000000E+00  0.00000000E+00  0.00000000E+00
  0.00000000E+00  0.00000000E+00  0.00000000E+00
  0.00000000E+00  0.00000000E+00  0.00000000E+00
