generated by pypospack                  
   4.98831000000000     
     1.3835584702989101   -0.0003761111730227    0.0004499132580387
    -0.0004651828444332    2.0379990567774118    0.0002714269692067
     0.0006771702682581    0.0002442513430692    2.0494913132632933
   Ta   Hf   Nb   Zr
    13     9     7     7
Direct
  0.7611897429151717  0.8428382355340927  0.5020070864331891
  0.2384521742077798  0.4961998540847629  0.1750304476863795
 -0.0000122288772364  0.6659394402264301  0.0076160010688316
  0.2255497862917893  0.8345205120479379  0.1762595860136498
  0.7598203845086435  0.4914903340628147  0.4926126146293277
  0.7726040232181896  0.8335590986220316  0.1707106614728215
  0.0142074560161841  0.9929344945037855  0.0100731210286863
  0.7652527362589301  0.5170488103738312  0.8330412432348313
  0.9938628149247666  0.6671185044318072  0.3330991520448698
  0.2569103792949136  0.1589862228816932  0.4951369766923273
  0.2448607222090828  0.1473715755937662  0.8265077461073544
  0.4968412779333674  0.0081201368772256  0.6639537241520763
  0.4797526911537467  0.3473332389082328  0.3513959289423598
  0.4941094016617156  0.3357981293516007  0.6680869407768300
  0.4894586468509916  0.9883310297819831  0.0094177885455917
  0.7440070776118876  0.1657273103411487  0.4909235275168452
  0.7624476793734003  0.8345640112538321  0.8258519805170754
  0.2535321426315970  0.1693409631470247  0.1802967252246202
  0.0069586664478548  0.3330181977702459  0.6678557077674654
  0.2385628005961131  0.8410839061387279  0.5015488750600806
  0.7599109504349274  0.1506892384634110  0.8369295735163550
  0.5084331796322181  0.6586879482214062  0.6594234166790861
  0.2367688456101828  0.5037307394352748  0.4952819106748974
  0.5043961003257597  0.9846497132318968  0.3288139551980965
  0.9953887111654762  0.9916604251810978  0.3304279634135406
  0.0065455895466437  0.0153758622549414  0.6598158772204392
  0.9900400405118897  0.6567676883062015  0.6588275134621961
  0.0189636664484084  0.3413834462433352  0.3468769102614480
  0.2313824479210446  0.5224832984153734  0.8293096382282988
  0.7511925974575377  0.1654425452311248  0.1709514368856078
  0.2402638678612817  0.8343648329847280  0.8228966388082631
  0.7560050462484114  0.4889008259019105  0.1716723194769166
  0.5018965099576133  0.6676073441618824  0.3351108843885294
  0.0198201344081571  0.3382770829988749  0.9853178350892718
  0.4964311047435420  0.6674201571350024  0.0028951375077823
  0.4841908324980024  0.3412458459005654  0.9840141542740730
 
  0.00000000E+00  0.00000000E+00  0.00000000E+00
  0.00000000E+00  0.00000000E+00  0.00000000E+00
  0.00000000E+00  0.00000000E+00  0.00000000E+00
  0.00000000E+00  0.00000000E+00  0.00000000E+00
  0.00000000E+00  0.00000000E+00  0.00000000E+00
  0.00000000E+00  0.00000000E+00  0.00000000E+00
  0.00000000E+00  0.00000000E+00  0.00000000E+00
  0.00000000E+00  0.00000000E+00  0.00000000E+00
  0.00000000E+00  0.00000000E+00  0.00000000E+00
  0.00000000E+00  0.00000000E+00  0.00000000E+00
  0.00000000E+00  0.00000000E+00  0.00000000E+00
  0.00000000E+00  0.00000000E+00  0.00000000E+00
  0.00000000E+00  0.00000000E+00  0.00000000E+00
  0.00000000E+00  0.00000000E+00  0.00000000E+00
  0.00000000E+00  0.00000000E+00  0.00000000E+00
  0.00000000E+00  0.00000000E+00  0.00000000E+00
  0.00000000E+00  0.00000000E+00  0.00000000E+00
  0.00000000E+00  0.00000000E+00  0.00000000E+00
  0.00000000E+00  0.00000000E+00  0.00000000E+00
  0.00000000E+00  0.00000000E+00  0.00000000E+00
  0.00000000E+00  0.00000000E+00  0.00000000E+00
  0.00000000E+00  0.00000000E+00  0.00000000E+00
  0.00000000E+00  0.00000000E+00  0.00000000E+00
  0.00000000E+00  0.00000000E+00  0.00000000E+00
  0.00000000E+00  0.00000000E+00  0.00000000E+00
  0.00000000E+00  0.00000000E+00  0.00000000E+00
  0.00000000E+00  0.00000000E+00  0.00000000E+00
  0.00000000E+00  0.00000000E+00  0.00000000E+00
  0.00000000E+00  0.00000000E+00  0.00000000E+00
  0.00000000E+00  0.00000000E+00  0.00000000E+00
  0.00000000E+00  0.00000000E+00  0.00000000E+00
  0.00000000E+00  0.00000000E+00  0.00000000E+00
  0.00000000E+00  0.00000000E+00  0.00000000E+00
  0.00000000E+00  0.00000000E+00  0.00000000E+00
  0.00000000E+00  0.00000000E+00  0.00000000E+00
  0.00000000E+00  0.00000000E+00  0.00000000E+00
