generated by pypospack                  
   4.98831000000000     
     1.4115620626207257    0.0040561689356213    0.0147271694191991
     0.0060574356487604    2.0630387102686161   -0.0005267774469158
     0.0214257161993171   -0.0006284536841311    2.0680239637365871
   Zr   Nb   Ta   Hf
    12     4    10    10
Direct
  0.7238349854645135  0.1623814503349856  0.8294966616578677
  0.5115674037587784  0.3366255399005582  0.3399456793564190
  0.0194039231201958  0.3229797171884666  0.6756216940835927
  0.2619278048242947  0.4948555717288658  0.1545680112985962
  0.9705879607622167  0.3391875103536046  0.3243174855242917
  0.4954403017737026  0.6666247857022188  0.3365098941312848
  0.2133948677434790  0.1586376196046496  0.4758816004377858
  0.7823529956144801  0.5132685233290321  0.5241291462900000
  0.7742691055968315  0.8348715895699941  0.5131269513038509
  0.2632598467446194  0.4984344180672140  0.8445913133721457
  0.2589751089882462  0.1632671475547016  0.1661875787842221
  0.7485579293235478  0.8250753693604661  0.8328108357974370
  0.7334410828019463  0.1601193792708014  0.1640642091932574
  0.2591195339251926  0.8282655037555172  0.8494931678506017
  0.5373726814588243  0.3367833120680424  0.0115549270269522
  0.5030909054638703  0.9869209209512654  0.0131596935762332
  0.4983118354346739  0.6762703570965309  0.0089530967384211
  0.0038973049593750  0.6765497526092954  0.0116917210865988
  0.7454388530853706  0.8302177758851176  0.1562072641594516
  0.9710725937373590  0.9941535434269331  0.3185164796740523
  0.2489778514202724  0.8378585073995037  0.1679528877111070
  0.7708503854666938  0.1546812400999873  0.5012413735107415
  0.2186329939900913  0.5046968673668892  0.5010836629045337
  0.0416172776056128  0.6768979823779020  0.6738684652216399
  0.7382438172691179  0.5122335153709890  0.1485500320499175
  0.2213054686178703  0.8373642905083590  0.4820670968637488
  0.5153814800647716  0.9937775442735717  0.3358481617057936
  0.4761320220388109 -0.0011371548939839  0.6505576219224677
  0.2914197022146340  0.1720160098799424  0.8550290546823924
  0.0000682500016970 -0.0014460834476551 -0.0008666309311345
  0.0254868275540709 -0.0003166925482303  0.6832148151789089
 -0.0049930017295805  0.6668919884867943  0.3168679259880579
  0.4881427282555331  0.3308055742318597  0.6441767122604602
  0.9773926729014536  0.3243892239468223  0.0000660294460139
  0.7519770138298876  0.5115997264453717  0.8359474860180406
  0.4640314859175653  0.6742016727436059  0.6535598941242553
 
  0.00000000E+00  0.00000000E+00  0.00000000E+00
  0.00000000E+00  0.00000000E+00  0.00000000E+00
  0.00000000E+00  0.00000000E+00  0.00000000E+00
  0.00000000E+00  0.00000000E+00  0.00000000E+00
  0.00000000E+00  0.00000000E+00  0.00000000E+00
  0.00000000E+00  0.00000000E+00  0.00000000E+00
  0.00000000E+00  0.00000000E+00  0.00000000E+00
  0.00000000E+00  0.00000000E+00  0.00000000E+00
  0.00000000E+00  0.00000000E+00  0.00000000E+00
  0.00000000E+00  0.00000000E+00  0.00000000E+00
  0.00000000E+00  0.00000000E+00  0.00000000E+00
  0.00000000E+00  0.00000000E+00  0.00000000E+00
  0.00000000E+00  0.00000000E+00  0.00000000E+00
  0.00000000E+00  0.00000000E+00  0.00000000E+00
  0.00000000E+00  0.00000000E+00  0.00000000E+00
  0.00000000E+00  0.00000000E+00  0.00000000E+00
  0.00000000E+00  0.00000000E+00  0.00000000E+00
  0.00000000E+00  0.00000000E+00  0.00000000E+00
  0.00000000E+00  0.00000000E+00  0.00000000E+00
  0.00000000E+00  0.00000000E+00  0.00000000E+00
  0.00000000E+00  0.00000000E+00  0.00000000E+00
  0.00000000E+00  0.00000000E+00  0.00000000E+00
  0.00000000E+00  0.00000000E+00  0.00000000E+00
  0.00000000E+00  0.00000000E+00  0.00000000E+00
  0.00000000E+00  0.00000000E+00  0.00000000E+00
  0.00000000E+00  0.00000000E+00  0.00000000E+00
  0.00000000E+00  0.00000000E+00  0.00000000E+00
  0.00000000E+00  0.00000000E+00  0.00000000E+00
  0.00000000E+00  0.00000000E+00  0.00000000E+00
  0.00000000E+00  0.00000000E+00  0.00000000E+00
  0.00000000E+00  0.00000000E+00  0.00000000E+00
  0.00000000E+00  0.00000000E+00  0.00000000E+00
  0.00000000E+00  0.00000000E+00  0.00000000E+00
  0.00000000E+00  0.00000000E+00  0.00000000E+00
  0.00000000E+00  0.00000000E+00  0.00000000E+00
  0.00000000E+00  0.00000000E+00  0.00000000E+00
