generated by pypospack                  
   4.98831000000000     
     1.3999523235641433    0.0037082625541454   -0.0040768683390452
     0.0054334618768292    2.0506448094947114    0.0056157081632438
    -0.0060024031882910    0.0054899318866890    2.0542169276899056
   Ta   Hf   Nb   Zr
     7     8    10    11
Direct
  0.2340556589866347  0.1712397756778794  0.8329032305192562
  0.7333165531011265  0.4969203289082711  0.1773602334674127
  0.5315272595108235  0.6678526593665436  0.0118632195932756
  0.0060503587417374  0.9942548457835240  0.3308541339149538
  0.0440218708135608  0.0050726033693735  0.6575098192225767
  0.5151195433667390  0.6700911868629585  0.3388833252166495
  0.7662690739830513  0.4983423550271831  0.4882048125409869
  0.0045985610132850  0.3378594082526210  0.0035515668478492
  0.9706519366526558  0.6606291491821292  0.0068704404278063
  0.2592122982383860  0.8280614169598098  0.1684913795738071
  0.4672840826393693  0.0025530607066302  0.6621857667138576
  0.7637404616005551  0.8391742759915718  0.5034034964544291
  0.2313215240836968  0.4971017525284524  0.4763309188704558
  0.0230582438881534  0.6521383272200887  0.6688365088792650
  0.2491214227243551  0.8257848525537929  0.8519440743621620
  0.4905543031463126  0.9899053703530292  0.3458199270691505
  0.7428119611786924  0.8298903626263926  0.1862415769166375
  0.2354504617367461  0.1704542422273309  0.4894654481863006
  0.5047247525910301  0.3391923009650679  0.3499925797788103
  0.2651799989513370  0.4981672072222270  0.8451474402120868
  0.9856923787920557  0.3354986239117347  0.3255488111578061
  0.0169957795064733  0.3390073166315617  0.6683498307262106
  0.9849520788074623  0.6719904095260030  0.3273678260623537
  0.2440683543597254  0.8326145069295267  0.4842333654333891
  0.4788503977443938  0.3356638086657913  0.9881713001730861
  0.2630700360289809  0.1666999747672818  0.1743591053611426
  0.9829707171210847  0.0050794550869175  0.0161184005469122
  0.7606859100962896  0.1638105280280472  0.5013969472649223
  0.7663192901834885  0.1695612962464851  0.8203204512045780
  0.2599577185335107  0.5048791280016244  0.1712115000381826
  0.5178648299525795  0.9969116899750453  0.9930608764975621
  0.7229475214904568  0.1790679112098715  0.1774707919002625
  0.7370440183429943  0.4905308560093501  0.8313089834763445
  0.4899069609934853  0.6628040694863796  0.6530225559712012
  0.4830061401053108  0.3319746167621436  0.6597249280809940
  0.7676045409934652  0.8392243269773652  0.8124694273373142
 
  0.00000000E+00  0.00000000E+00  0.00000000E+00
  0.00000000E+00  0.00000000E+00  0.00000000E+00
  0.00000000E+00  0.00000000E+00  0.00000000E+00
  0.00000000E+00  0.00000000E+00  0.00000000E+00
  0.00000000E+00  0.00000000E+00  0.00000000E+00
  0.00000000E+00  0.00000000E+00  0.00000000E+00
  0.00000000E+00  0.00000000E+00  0.00000000E+00
  0.00000000E+00  0.00000000E+00  0.00000000E+00
  0.00000000E+00  0.00000000E+00  0.00000000E+00
  0.00000000E+00  0.00000000E+00  0.00000000E+00
  0.00000000E+00  0.00000000E+00  0.00000000E+00
  0.00000000E+00  0.00000000E+00  0.00000000E+00
  0.00000000E+00  0.00000000E+00  0.00000000E+00
  0.00000000E+00  0.00000000E+00  0.00000000E+00
  0.00000000E+00  0.00000000E+00  0.00000000E+00
  0.00000000E+00  0.00000000E+00  0.00000000E+00
  0.00000000E+00  0.00000000E+00  0.00000000E+00
  0.00000000E+00  0.00000000E+00  0.00000000E+00
  0.00000000E+00  0.00000000E+00  0.00000000E+00
  0.00000000E+00  0.00000000E+00  0.00000000E+00
  0.00000000E+00  0.00000000E+00  0.00000000E+00
  0.00000000E+00  0.00000000E+00  0.00000000E+00
  0.00000000E+00  0.00000000E+00  0.00000000E+00
  0.00000000E+00  0.00000000E+00  0.00000000E+00
  0.00000000E+00  0.00000000E+00  0.00000000E+00
  0.00000000E+00  0.00000000E+00  0.00000000E+00
  0.00000000E+00  0.00000000E+00  0.00000000E+00
  0.00000000E+00  0.00000000E+00  0.00000000E+00
  0.00000000E+00  0.00000000E+00  0.00000000E+00
  0.00000000E+00  0.00000000E+00  0.00000000E+00
  0.00000000E+00  0.00000000E+00  0.00000000E+00
  0.00000000E+00  0.00000000E+00  0.00000000E+00
  0.00000000E+00  0.00000000E+00  0.00000000E+00
  0.00000000E+00  0.00000000E+00  0.00000000E+00
  0.00000000E+00  0.00000000E+00  0.00000000E+00
  0.00000000E+00  0.00000000E+00  0.00000000E+00
