generated by pypospack                  
   4.98831000000000     
     1.3952638467833134   -0.0040410397565577    0.0039785763639508
    -0.0058831486320404    2.0460465307093281    0.0016256387830641
     0.0059284157743849    0.0015305430584003    2.0440209356863273
   Ta   Hf   Zr   Nb
    11    11     7     7
Direct
  0.2518073908946998  0.1707295997162387  0.5111054147718455
  0.0364766236051069  0.3276814464370460  0.3450777813829194
  0.0173741318761912  0.3327683118260319  0.6662440369701913
  0.2581283248664275  0.4971609185398495  0.8294703372564090
  0.2504498426870364  0.8239419804624976  0.1525822782716674
  0.4840285106207371  0.3348317632432621  0.6658062679413213
  0.4831012419873537  0.3222593423684668  0.9930708613798830
  0.2531297158546038  0.5011146480109054  0.5067054070766109
  0.4859872765605200  0.6653214466986536  0.3183068497141711
  0.5057839332006863  0.9986566837692697  0.0040912132258657
  0.4982869080614877  0.6512610897613432  0.6793306098463091
  0.7626141227935546  0.4933780971231351  0.1697087812302080
  0.2591558020231337  0.8300727093818275  0.8398640237487887
  0.7204146571703458  0.8325977920647083  0.5030238682396871
  0.7449472133899597  0.4869776550206977  0.8332095320524529
  0.2262873763290315  0.5068059573160966  0.1562757347847518
  0.0143220801647120  0.6832960139031337  0.3413893482844268
  0.7511588187418605  0.1767520199957525  0.4961322773770674
  0.4643999127848721  0.3387559931865773  0.3321354947188169
  0.0154201738099234 -0.0006953635282707  0.3330325468746334
  0.7510756450069526  0.1827839626028667  0.1743673776449311
  0.5177720188202076  0.6693201106961417  0.0049066879796116
  0.7469221505871811  0.4956479670852235  0.4966132408016773
  0.9906453537071767 -0.0010790217914080  0.0010243486948697
  0.0181211426479098  0.3148635938719897  0.9816862508928317
 -0.0002355774941520  0.6654384811967126  0.6656035284350672
  0.4853273749196518  0.0015131672206051  0.3170676843323358
  0.9937930572175995  0.0038539971323693  0.6690067680586651
  0.2872455134052347  0.8339013821265541  0.5137327536321828
  0.7371755340462747  0.8354346940667218  0.8317704228990004
  0.2563159814615063  0.1672701410546069  0.1587207617694811
  0.9763800142674109  0.6795206682548567  0.0008532858111246
  0.5079485735132302  0.0133923366631097  0.6821840269409307
  0.7343207859992091  0.1716150943492877  0.8275962003570356
  0.7464244244404037  0.8326080494398530  0.1715919534942972
  0.2674869500319427  0.1602562707332720  0.8267120431079177
 
  0.00000000E+00  0.00000000E+00  0.00000000E+00
  0.00000000E+00  0.00000000E+00  0.00000000E+00
  0.00000000E+00  0.00000000E+00  0.00000000E+00
  0.00000000E+00  0.00000000E+00  0.00000000E+00
  0.00000000E+00  0.00000000E+00  0.00000000E+00
  0.00000000E+00  0.00000000E+00  0.00000000E+00
  0.00000000E+00  0.00000000E+00  0.00000000E+00
  0.00000000E+00  0.00000000E+00  0.00000000E+00
  0.00000000E+00  0.00000000E+00  0.00000000E+00
  0.00000000E+00  0.00000000E+00  0.00000000E+00
  0.00000000E+00  0.00000000E+00  0.00000000E+00
  0.00000000E+00  0.00000000E+00  0.00000000E+00
  0.00000000E+00  0.00000000E+00  0.00000000E+00
  0.00000000E+00  0.00000000E+00  0.00000000E+00
  0.00000000E+00  0.00000000E+00  0.00000000E+00
  0.00000000E+00  0.00000000E+00  0.00000000E+00
  0.00000000E+00  0.00000000E+00  0.00000000E+00
  0.00000000E+00  0.00000000E+00  0.00000000E+00
  0.00000000E+00  0.00000000E+00  0.00000000E+00
  0.00000000E+00  0.00000000E+00  0.00000000E+00
  0.00000000E+00  0.00000000E+00  0.00000000E+00
  0.00000000E+00  0.00000000E+00  0.00000000E+00
  0.00000000E+00  0.00000000E+00  0.00000000E+00
  0.00000000E+00  0.00000000E+00  0.00000000E+00
  0.00000000E+00  0.00000000E+00  0.00000000E+00
  0.00000000E+00  0.00000000E+00  0.00000000E+00
  0.00000000E+00  0.00000000E+00  0.00000000E+00
  0.00000000E+00  0.00000000E+00  0.00000000E+00
  0.00000000E+00  0.00000000E+00  0.00000000E+00
  0.00000000E+00  0.00000000E+00  0.00000000E+00
  0.00000000E+00  0.00000000E+00  0.00000000E+00
  0.00000000E+00  0.00000000E+00  0.00000000E+00
  0.00000000E+00  0.00000000E+00  0.00000000E+00
  0.00000000E+00  0.00000000E+00  0.00000000E+00
  0.00000000E+00  0.00000000E+00  0.00000000E+00
  0.00000000E+00  0.00000000E+00  0.00000000E+00
