generated by pypospack
   4.98831
  1.380772   0.001108  -0.000551
  0.001711   2.056288   0.002007
 -0.000765   0.001938   2.048195
 Ta Hf Nb Zr
 12 9 7 8
Direct
  0.253063   0.165427   0.506623
  0.246828   0.182514   0.175651
  0.018024   0.326724   0.339700
  0.008384   0.338402   0.665914
  0.234519   0.485048   0.833600
  0.254514   0.856004   0.518320
  0.480867   0.324014   0.335554
  0.765875   0.493505   0.816215
  0.748569   0.849926   0.516411
  0.244502   0.845115   0.834482
  0.237053   0.816600   0.142267
  0.491669   0.342081   0.671662
  0.252647   0.164440   0.826094
  0.246576   0.499355   0.165805
  0.014443   0.679558   0.344844
  0.505964   0.003179   0.011427
  0.747320   0.167799   0.505157
  0.512089   0.326663  -0.002967
  0.744304   0.488144   0.498212
  0.489573   0.685068   0.341242
  0.489898   0.661831   0.665563
  0.003920   0.001073   0.666899
  0.259004   0.487096   0.494582
  0.003179   0.664712   0.989330
  0.750418   0.181057   0.194921
  0.498208   0.999349   0.668016
  0.744019   0.166907   0.812370
  0.763658   0.809912   0.156538
  0.987306   0.005459   0.008994
  0.003588   0.996461   0.328869
  0.982500   0.323849   0.999531
  0.013982   0.664104   0.658399
  0.497173   0.996319   0.325713
  0.751998   0.505116   0.174541
  0.497679   0.662469   0.984458
  0.756677   0.834725   0.825058
