generated by pypospack
   4.98831
  1.396656  -0.000573  -0.007155
 -0.000772   2.067801   0.001443
 -0.010582   0.001665   2.045764
 Ta Hf Nb Zr
 8 11 8 9
Direct
  0.752095   0.841294   0.156722
  0.240694   0.159575   0.497334
  0.004963   0.316285   0.347898
  0.263961   0.506769   0.814904
  0.514723   0.677502   0.320867
  0.531192   0.661578   0.660953
 -0.019038   0.661844   0.665885
  0.996401   0.994538   0.337955
  0.474006   0.333614   0.000248
  0.766624   0.493326   0.165261
  0.267944   0.819577   0.807723
  0.749010   0.495910   0.839254
  0.224175   0.496359   0.188894
  0.975978   0.685981   0.335511
  0.480940   0.665922   0.018523
  0.517586   0.018860   0.667915
  0.987260   0.007880   0.665422
  0.741262   0.826056   0.841030
  0.480840   0.006429  -0.000856
  0.758274   0.168735   0.490823
  0.217829   0.169470   0.172343
  0.753614   0.185401   0.844763
  0.247707   0.176969   0.828858
  0.024468   0.332435   0.988687
  0.742116   0.829742   0.503111
  0.246310   0.835835   0.184907
  0.495168   0.322049   0.674887
  0.486986   0.316941   0.326506
  0.739299   0.495231   0.494774
  0.020117   0.999243   0.995337
  0.497358  -0.000002   0.327922
  0.258932   0.831156   0.502913
  0.770684   0.164731   0.160003
  0.026519   0.672915   0.000988
  0.004290   0.328360   0.666566
  0.259715   0.501507   0.505171
