generated by pypospack
   4.98831
  1.363903   0.001197  -0.000896
  0.001821   2.042574  -0.001173
 -0.001318  -0.001140   2.042458
 Hf Nb Ta Zr
 9 10 12 5
Direct
  0.742826   0.162190   0.491397
  0.754506   0.833988   0.823290
  0.500085   0.341947   0.994779
  0.244262   0.172506   0.175058
  0.003585   0.338602   0.664335
  0.243320   0.832771   0.501736
  0.753344   0.146747   0.828788
  0.501251   0.668328   0.330261
  0.769046   0.490451   0.179554
  0.502977   0.991806   0.326378
  0.994680  -0.002005   0.330355
  0.253757   0.161014   0.492343
  0.004940   0.001849   0.657365
 -0.000343   0.667710   0.334478
 -0.001011   0.662251   0.664495
  0.494238   0.993464   0.655260
  0.500602   0.663105   0.661363
  0.007262   0.333805   0.348556
  0.493166   0.339981   0.340541
  0.754674   0.836698   0.503811
  0.236195   0.490783   0.177570
  0.246094   0.507964   0.497960
  0.245068   0.526672   0.826247
  0.007957   0.670459   0.001009
  0.227973   0.837353   0.175519
  0.754524   0.501239   0.492651
  0.772974   0.833031   0.172673
  0.996047   0.986918   0.010776
  0.752155   0.169080   0.178496
  0.243513   0.830718   0.824964
  0.757008   0.522627   0.827231
  0.245726   0.143480   0.831480
  0.999619   0.341658   0.984673
  0.503479   0.992747   0.015556
  0.498701   0.342368   0.672505
  0.495799   0.665697   0.006545
