generated by pypospack
   4.98831
  1.378461  -0.003718  -0.002714
 -0.005293   2.041628   0.002282
 -0.004025   0.002238   2.042052
 Ta Hf Nb Zr
 10 7 10 9
Direct
  0.261898   0.842066   0.489934
  0.741879   0.836416   0.495056
  0.258471   0.508900   0.175103
  0.736725   0.496566   0.510352
  0.992367   0.027652   0.001742
  0.756891   0.495837   0.816678
  0.271180   0.163694   0.492082
  0.269688   0.153452   0.829667
  0.495667   0.989727   0.657774
  0.506399   0.334332   0.336365
  0.010897   0.660322   0.354641
  0.247606   0.834085   0.170085
  0.008164   0.328391   0.658552
  0.724056   0.168095   0.825059
  0.494149   0.671918   0.665888
  0.002493   0.009757   0.651890
  0.996388   0.335288   0.343136
  0.011819   0.645800   0.995619
  0.495649   0.664561   0.346657
  0.266508   0.492144   0.500973
  0.511087   0.001350   0.337801
  0.996154   0.000911   0.345536
  0.000305   0.660021   0.657867
  0.232498   0.503799   0.826111
  0.486870   0.337682   0.662473
  0.741616   0.159171   0.170171
  0.731538   0.164503   0.498768
  0.768614   0.833311   0.838554
  0.759602   0.835531   0.168665
  0.489866   0.338866   0.000706
  0.228950   0.842438   0.842342
  0.744030   0.512985   0.171568
  0.002863   0.330749   0.997730
  0.489216   0.658626   0.985927
  0.258986   0.156908   0.176179
  0.508907   0.004155   0.002353
