generated by pypospack                  
   4.98831000000000     
     1.4021234717595681   -0.0006319426100690    0.0066260595777940
    -0.0009001782928652    2.0581041559313085   -0.0005688360307271
     0.0097890929498814   -0.0007931571576007    2.0396668023364137
   Hf   Nb   Ta   Zr
    10    10     7     9
Direct
  0.2670626835903065  0.5040402691723087  0.1677172449599762
  0.4927229496896508  0.6627855381759846  0.6483139253593470
  0.2578354697065176  0.5088207563586461  0.8449429059242328
  0.2294404321249942  0.1742712035629330  0.4870880933857547
  0.0080237787949645  0.3299031521932888  0.0050634543812699
  0.9681892873475471  0.6669145060562749  0.0211635347122245
  0.2739819566367792  0.8201645900491193  0.1611833157592365
  0.4687645968268362  0.9992242331529289  0.6553748782785991
  0.7660859398167961  0.8375434095015536  0.5050008229790072
  0.2624731109306592  0.8220964625963085  0.8453600701571150
  0.2624330776610774  0.1714208691880203  0.1754240907414627
  0.0197084595216465  0.6710382115428087  0.6568302895333888
  0.5405182524238780  0.6639331057671958  0.0061155047394808
  0.7209425260434946  0.8317485843180592  0.1774695363596806
  0.5065438010448698  0.3430096264051414  0.3422835612973482
  0.9849127660097456  0.3433509171469085  0.3163805066195083
  0.0136329373340035  0.3284743752524951  0.6831802471847789
  0.2369776694622608  0.8296331737506345  0.4901464414857396
  0.4864722655597588  0.3208024960800190 -0.0020070412061903
  0.2494303610060898  0.1675044934331188  0.8342528087459072
  0.7298991161603559  0.4956987860186762  0.1794131352013968
  0.0375458102287923  0.9986220797005843  0.6720418107926901
  0.5121568728967415  0.6682025090923462  0.3458947823064121
  0.7690104631251702  0.5039483624956604  0.4943958736337239
  0.9825147395921066  0.6685466577470024  0.3256908004862763
  0.4794655890536045  0.0135483891811770  0.0048404545221402
  0.4903408459205968  0.9921037680670715  0.3385543282927829
  0.9989630748092025  0.9898047375290410  0.3145775180977480
  0.0105153550882015  0.0034218034440907  0.0048261323776479
  0.7633330627256174  0.1665039479067369  0.5010936008748537
  0.7488082668094931  0.1613759732557130  0.8299884738731764
  0.7259966635349343  0.1731909626936929  0.1709398373180537
  0.4936922700946493  0.3354336479828807  0.6597260146887398
  0.7550339416619450  0.8394761916204848  0.8229378421629131
  0.2265996558599350  0.4949931173559560  0.4898354791102397
  0.7599679509067864  0.4984580922051436  0.8239547248633429
 
  0.00000000E+00  0.00000000E+00  0.00000000E+00
  0.00000000E+00  0.00000000E+00  0.00000000E+00
  0.00000000E+00  0.00000000E+00  0.00000000E+00
  0.00000000E+00  0.00000000E+00  0.00000000E+00
  0.00000000E+00  0.00000000E+00  0.00000000E+00
  0.00000000E+00  0.00000000E+00  0.00000000E+00
  0.00000000E+00  0.00000000E+00  0.00000000E+00
  0.00000000E+00  0.00000000E+00  0.00000000E+00
  0.00000000E+00  0.00000000E+00  0.00000000E+00
  0.00000000E+00  0.00000000E+00  0.00000000E+00
  0.00000000E+00  0.00000000E+00  0.00000000E+00
  0.00000000E+00  0.00000000E+00  0.00000000E+00
  0.00000000E+00  0.00000000E+00  0.00000000E+00
  0.00000000E+00  0.00000000E+00  0.00000000E+00
  0.00000000E+00  0.00000000E+00  0.00000000E+00
  0.00000000E+00  0.00000000E+00  0.00000000E+00
  0.00000000E+00  0.00000000E+00  0.00000000E+00
  0.00000000E+00  0.00000000E+00  0.00000000E+00
  0.00000000E+00  0.00000000E+00  0.00000000E+00
  0.00000000E+00  0.00000000E+00  0.00000000E+00
  0.00000000E+00  0.00000000E+00  0.00000000E+00
  0.00000000E+00  0.00000000E+00  0.00000000E+00
  0.00000000E+00  0.00000000E+00  0.00000000E+00
  0.00000000E+00  0.00000000E+00  0.00000000E+00
  0.00000000E+00  0.00000000E+00  0.00000000E+00
  0.00000000E+00  0.00000000E+00  0.00000000E+00
  0.00000000E+00  0.00000000E+00  0.00000000E+00
  0.00000000E+00  0.00000000E+00  0.00000000E+00
  0.00000000E+00  0.00000000E+00  0.00000000E+00
  0.00000000E+00  0.00000000E+00  0.00000000E+00
  0.00000000E+00  0.00000000E+00  0.00000000E+00
  0.00000000E+00  0.00000000E+00  0.00000000E+00
  0.00000000E+00  0.00000000E+00  0.00000000E+00
  0.00000000E+00  0.00000000E+00  0.00000000E+00
  0.00000000E+00  0.00000000E+00  0.00000000E+00
  0.00000000E+00  0.00000000E+00  0.00000000E+00
