generated by pypospack                  
   4.98831000000000     
     1.3781357131682084   -0.0017620030247873   -0.0005771062761217
    -0.0026678404895952    2.0543215779002910   -0.0032916796889622
    -0.0009140069267656   -0.0032560109135951    2.0810367444846807
   Ta   Zr   Nb   Hf
     9    10     8     9
Direct
  0.0026913913025238  0.0055442846917900  0.3473011051660863
  0.2453229362339611  0.4812281019304437  0.1460995901747712
  0.9931426986420467  0.3357455573581407  0.6892658211325202
  0.2474820519084709  0.4932030199448137  0.8335063496700720
  0.2233940791577256  0.8491875584786940  0.1809361199695106
  0.2488069526890067  0.8360541272307033  0.4994902359576003
  0.7383866562985860  0.1712595145248957  0.1532653881468774
  0.5020692172421740  0.9791978803844338  0.6593552782586634
  0.7550373057353699  0.4937869410416493  0.1519702986583041
  0.7339155586518832  0.1696489954173031  0.8384548501205780
  0.9986965601415020  0.9935904809981133  0.9862335826724153
  0.2574247427383355  0.1726019172281469  0.5103850515053091
  0.2627716502162561  0.1766367554255790  0.8324168157569227
  0.0058031083375232  0.6655953270059610  0.9944670901377529
  0.7381302230696279  0.1744574803939058  0.5136809182234234
  0.5059581196669193  0.3457244522636340  0.3234454833001826
  0.7673242702124200  0.5053134382587680  0.5106612401812511
  0.7793911203673916  0.8341444865678517  0.1823934094931430
  0.5016243889153700  0.6723257596244885  0.6700349271599652
  0.9931405125709895  0.3354505210554615  0.0018903809498711
  0.0039887392918017  0.6760040503711988  0.6726135476401923
  0.2463901351810839  0.8278527282483613  0.8151842970503311
  0.5039977189904523  0.3445765215666304  0.0034281433830294
  0.5091512660529649  0.3575529327938353  0.6814320634210116
  0.7529803900660367  0.4950565634930066  0.8369482962157233
  0.7534213110469413  0.8323212048466910  0.4949804531314261
  0.7490453175389522  0.8325729558699773  0.8201279696208826
  0.2537065737153962  0.1664628459561011  0.1594069954299928
  0.9949866160011435  0.9937206077149863  0.6620376206835019
  0.9903751123081325  0.3316112769863578  0.3204654974722492
  0.2384019947151924  0.4913753809540376  0.5205843118754464
  0.0262078039020199  0.6538659230620010  0.3277924489380857
  0.4964399093103211  0.9766998366108021  0.0035129815506830
  0.4996006117053899  0.9972231206393605  0.3331437813999462
  0.4952113014073187  0.6673086291808878  0.9997410448050177
  0.4855806546687650  0.6650978218810062  0.3233436107472686
 
  0.00000000E+00  0.00000000E+00  0.00000000E+00
  0.00000000E+00  0.00000000E+00  0.00000000E+00
  0.00000000E+00  0.00000000E+00  0.00000000E+00
  0.00000000E+00  0.00000000E+00  0.00000000E+00
  0.00000000E+00  0.00000000E+00  0.00000000E+00
  0.00000000E+00  0.00000000E+00  0.00000000E+00
  0.00000000E+00  0.00000000E+00  0.00000000E+00
  0.00000000E+00  0.00000000E+00  0.00000000E+00
  0.00000000E+00  0.00000000E+00  0.00000000E+00
  0.00000000E+00  0.00000000E+00  0.00000000E+00
  0.00000000E+00  0.00000000E+00  0.00000000E+00
  0.00000000E+00  0.00000000E+00  0.00000000E+00
  0.00000000E+00  0.00000000E+00  0.00000000E+00
  0.00000000E+00  0.00000000E+00  0.00000000E+00
  0.00000000E+00  0.00000000E+00  0.00000000E+00
  0.00000000E+00  0.00000000E+00  0.00000000E+00
  0.00000000E+00  0.00000000E+00  0.00000000E+00
  0.00000000E+00  0.00000000E+00  0.00000000E+00
  0.00000000E+00  0.00000000E+00  0.00000000E+00
  0.00000000E+00  0.00000000E+00  0.00000000E+00
  0.00000000E+00  0.00000000E+00  0.00000000E+00
  0.00000000E+00  0.00000000E+00  0.00000000E+00
  0.00000000E+00  0.00000000E+00  0.00000000E+00
  0.00000000E+00  0.00000000E+00  0.00000000E+00
  0.00000000E+00  0.00000000E+00  0.00000000E+00
  0.00000000E+00  0.00000000E+00  0.00000000E+00
  0.00000000E+00  0.00000000E+00  0.00000000E+00
  0.00000000E+00  0.00000000E+00  0.00000000E+00
  0.00000000E+00  0.00000000E+00  0.00000000E+00
  0.00000000E+00  0.00000000E+00  0.00000000E+00
  0.00000000E+00  0.00000000E+00  0.00000000E+00
  0.00000000E+00  0.00000000E+00  0.00000000E+00
  0.00000000E+00  0.00000000E+00  0.00000000E+00
  0.00000000E+00  0.00000000E+00  0.00000000E+00
  0.00000000E+00  0.00000000E+00  0.00000000E+00
  0.00000000E+00  0.00000000E+00  0.00000000E+00
