generated by pypospack
   4.98831
  1.395882  -0.000322   0.002250
 -0.000306   2.081678   0.002807
  0.003361   0.002801   2.051271
 Zr Ta Nb Hf
 8 9 5 14
Direct
  0.500727   0.006498   0.000057
  0.746677   0.495996   0.496101
  0.989395   0.003037  -0.000031
  0.009429   0.322723   0.990435
  0.020504   0.664865   0.654550
  0.485225   0.002363   0.322062
  0.297707   0.827564   0.508742
  0.757140   0.182860   0.182481
  0.758501   0.825075   0.181945
  0.227537   0.176968   0.508499
  0.036039   0.333994   0.339318
  0.252602   0.494235   0.834469
  0.238087   0.823604   0.150285
  0.486782   0.332454   0.666620
  0.258049   0.494731   0.502181
  0.491235   0.666660   0.315424
  0.477306   0.640310   0.673699
  0.009765   0.335947   0.670703
  0.244686   0.169550   0.161749
  0.978992   0.671986   0.007796
  0.739881   0.189329   0.825805
  0.252516   0.177706   0.829316
  0.487461   0.324272   0.992916
  0.758473   0.495846   0.174272
  0.249490   0.821450   0.844619
  0.730849   0.830574   0.499102
  0.747355   0.495351   0.830036
  0.241440   0.502441   0.156120
  0.019860   0.675822   0.339340
  0.769291   0.176236   0.497867
  0.467059   0.328263   0.336669
  0.018542   0.993038   0.331978
  0.519720   0.671725   0.012228
  0.493420   0.023972   0.675863
  0.002853   0.005543   0.675458
  0.735407   0.817022   0.811326
