generated by pypospack
   4.98831
  1.408381   0.004812   0.012227
  0.007157   2.068167  -0.001696
  0.017841  -0.001778   2.056074
 Zr Hf Ta Nb
 12 9 11 4
Direct
  0.729191   0.162887   0.825168
  0.506493   0.334883   0.340290
  0.024011   0.318745   0.667141
  0.263899   0.495275   0.150660
  0.981293   0.332720   0.329541
  0.494981   0.667035   0.335181
  0.780159   0.511008   0.523448
  0.770024   0.837663   0.511830
  0.261309   0.499208   0.842966
  0.259032   0.162937   0.169219
  0.747983   0.827220   0.832699
  0.288226   0.173776   0.856799
  0.502804   0.995922   0.339014
  0.469331  -0.000632   0.650324
 -0.000335   0.997810   0.000108
  0.028318   0.003158   0.673506
  0.992608   0.666822   0.315467
  0.482507   0.330043   0.641835
  0.973699   0.325035   0.005459
  0.753499   0.510188   0.834129
  0.465031   0.674216   0.654788
  0.502293   0.676261   0.008052
  0.000449   0.676029   0.010682
  0.743214   0.832172   0.156816
  0.987140   0.999491   0.328245
  0.250721   0.837744   0.166627
  0.764670   0.152508   0.504786
  0.216766   0.507698   0.502023
  0.038676   0.677282   0.675305
  0.736667   0.511461   0.150744
  0.218703   0.832775   0.482942
  0.258779   0.828141   0.849026
  0.226039   0.161274   0.474912
  0.736946   0.157596   0.167449
  0.540190   0.336638   0.010714
  0.504667   0.987016   0.012096
