generated by pypospack                  
   4.98831000000000     
     1.3857123462148242    0.0072024473086739    0.0039977796261714
     0.0106571317786735    2.0420931624063789    0.0036575571879058
     0.0059807445048543    0.0035854359984363    2.0684594511894017
   Hf   Nb   Ta   Zr
     9     9     9     9
Direct
  0.9996084442068651  0.3310306153281500  0.0069168268342293
  0.2655502320075133  0.4936671931309910  0.8364978943298248
  0.9741589215002960  0.6651359241323589  0.9861842773039221
  0.2456434577573730  0.8157303145430765  0.1726834181396385
  0.9953605548821691  0.6692056313169734  0.6658183091317484
  0.7651189913301500  0.1726719007377784  0.5004366649789472
  0.4848620732304777  0.9964639205024107  0.6644206447473382
  0.7550356052248435  0.1668544216909551  0.8195026686334367
  0.7653258268310266  0.8314049694589798  0.1870507421707866
  0.9944546195429236  0.3433036777538137  0.3254393572190293
  0.2447787462421691  0.4970791579439132  0.4960847681844034
  0.0065445222431676  0.3488556763753546  0.6648654892824390
  0.9973709104088313  0.6611158102629726  0.3491847951545801
  0.2376219170358995  0.8282770979988748  0.4929801647708204
  0.2464954448487671  0.8255536871998417  0.8385763935043012
  0.4905838571933092  0.3169739965270377  0.0101190050879295
  0.7425149303706967  0.4966413093858887  0.1803859203130070
  0.7629232796156129  0.8601665190225739  0.8218535805924549
  0.2521067216035169  0.1799352720478476  0.1795027721065431
  0.0190622800926730  0.9945882825755887  0.3356252233479597
  0.0176716666800345  0.9846257915090616  0.6683556774438290
  0.2452485871093770  0.1822736094131186  0.8192198218100023
  0.4992174641312175  0.3434991991604847  0.3396398606701934
  0.7503763869220067  0.4940074698416742  0.4964522949200406
  0.4842808295135171  0.3286038730105210  0.6498464793435531
  0.5085055531296951  0.6592321289502522  0.3480899846218667
  0.7649912479428640  0.8330649815526862  0.4875617411725809
  0.0183839106368360  0.0045827156409635  0.9974853140310741
  0.2271915735929518  0.1725858267186834  0.5003498231484210
  0.2570515222255692  0.5035696948099286  0.1674130797409764
  0.4896996821257730  0.0053611741990466  0.9938021436498590
  0.7476957025140214  0.1683598225647847  0.1788944720358499
  0.4847269512887951  0.9949598307514319  0.3427515697603529
  0.7256098278605650  0.4771284935225070  0.8244159915134427
  0.5321220709388983  0.6772082923115840  0.9935070714095711
  0.5021056872196251  0.6762817181078985  0.6580857588950758
 
  0.00000000E+00  0.00000000E+00  0.00000000E+00
  0.00000000E+00  0.00000000E+00  0.00000000E+00
  0.00000000E+00  0.00000000E+00  0.00000000E+00
  0.00000000E+00  0.00000000E+00  0.00000000E+00
  0.00000000E+00  0.00000000E+00  0.00000000E+00
  0.00000000E+00  0.00000000E+00  0.00000000E+00
  0.00000000E+00  0.00000000E+00  0.00000000E+00
  0.00000000E+00  0.00000000E+00  0.00000000E+00
  0.00000000E+00  0.00000000E+00  0.00000000E+00
  0.00000000E+00  0.00000000E+00  0.00000000E+00
  0.00000000E+00  0.00000000E+00  0.00000000E+00
  0.00000000E+00  0.00000000E+00  0.00000000E+00
  0.00000000E+00  0.00000000E+00  0.00000000E+00
  0.00000000E+00  0.00000000E+00  0.00000000E+00
  0.00000000E+00  0.00000000E+00  0.00000000E+00
  0.00000000E+00  0.00000000E+00  0.00000000E+00
  0.00000000E+00  0.00000000E+00  0.00000000E+00
  0.00000000E+00  0.00000000E+00  0.00000000E+00
  0.00000000E+00  0.00000000E+00  0.00000000E+00
  0.00000000E+00  0.00000000E+00  0.00000000E+00
  0.00000000E+00  0.00000000E+00  0.00000000E+00
  0.00000000E+00  0.00000000E+00  0.00000000E+00
  0.00000000E+00  0.00000000E+00  0.00000000E+00
  0.00000000E+00  0.00000000E+00  0.00000000E+00
  0.00000000E+00  0.00000000E+00  0.00000000E+00
  0.00000000E+00  0.00000000E+00  0.00000000E+00
  0.00000000E+00  0.00000000E+00  0.00000000E+00
  0.00000000E+00  0.00000000E+00  0.00000000E+00
  0.00000000E+00  0.00000000E+00  0.00000000E+00
  0.00000000E+00  0.00000000E+00  0.00000000E+00
  0.00000000E+00  0.00000000E+00  0.00000000E+00
  0.00000000E+00  0.00000000E+00  0.00000000E+00
  0.00000000E+00  0.00000000E+00  0.00000000E+00
  0.00000000E+00  0.00000000E+00  0.00000000E+00
  0.00000000E+00  0.00000000E+00  0.00000000E+00
  0.00000000E+00  0.00000000E+00  0.00000000E+00
