generated by pypospack
   4.98831
  1.394490   0.001993   0.000602
  0.002965   2.063580  -0.002160
  0.000799  -0.002240   2.073009
 Ta Nb Hf Zr
 10 5 11 10
Direct
  0.995414   0.346547   0.994358
  0.983248   0.000005   0.336331
  0.254226   0.479127   0.151620
  0.978953   0.329986   0.676033
  0.238640   0.489028   0.832790
  0.235853   0.842110   0.203027
  0.247040   0.828901   0.490740
  0.483138   0.000363   0.650387
  0.740646   0.485117   0.147646
  0.769697   0.157964   0.505511
  0.759775   0.845844   0.170496
  0.023585   0.673649   0.683623
  0.264788   0.832037   0.817091
  0.500657   0.350338   0.990925
  0.762202   0.499696   0.836474
  0.748091   0.168285   0.154377
  0.247282   0.177214   0.161692
  0.025656   0.999153   0.666394
 -0.019463   0.340568   0.327087
  0.227631   0.501845   0.512121
 -0.003534   0.660475   0.314719
  0.480116   0.974610   0.015969
  0.510610   0.002285   0.339097
  0.496743   0.665175   0.002623
  0.521250   0.336470   0.660914
  0.742671   0.839873   0.825364
  0.500833   0.664051   0.318283
  0.743047   0.159249   0.836434
  0.021672   0.982418   0.001579
  0.226099   0.174516   0.496537
  0.261494   0.174938   0.839339
  0.005955   0.665575   0.004219
  0.507811   0.340608   0.338465
  0.775041   0.520655   0.512240
  0.487117   0.660821   0.676932
  0.756024   0.830513   0.508566
