generated by pypospack
   4.98831
  1.393732   0.001247  -0.006469
  0.001882   2.055660   0.003250
 -0.009634   0.003277   2.043006
 Ta Hf Zr Nb
 12 9 9 6
Direct
  0.499892   0.342464   0.343067
  0.733105   0.831410   0.835524
  0.737515   0.837888   0.155850
  0.997754   0.982496   0.315545
  0.279677   0.486249   0.154954
  0.263897   0.841097   0.150548
  0.516454   0.000419   0.662640
  0.727859   0.493308   0.165295
  0.757554   0.159124   0.480702
  0.504079   0.667605   0.001414
  0.502978   0.668034   0.682185
  0.247746   0.511287   0.514659
  0.276475   0.167085   0.831932
  0.991338   0.001449   0.996622
  0.979725   0.324941   0.670743
  0.742534   0.167676   0.177077
  0.977655   0.010474   0.682739
  0.013500   0.667260   0.313631
  0.499321   0.986882   0.337416
  0.518924   0.332849   0.650026
  0.979617   0.332673   0.994644
  0.009173   0.350939   0.330582
  0.491298   0.666213   0.325431
  0.239436   0.160516   0.494257
  0.997524   0.665835   0.005601
  0.766489   0.519506   0.505151
  0.762812   0.826800   0.508226
  0.255921   0.496734   0.830931
  0.257390   0.168057   0.166418
  0.241589   0.826232   0.515257
  0.712488   0.161682   0.842087
  0.998047   0.670330   0.691030
  0.260949   0.833265   0.834619
  0.517827   0.341291   0.000588
  0.738875   0.510079   0.834594
  0.502571   0.989860   0.998016
