generated by pypospack                  
   4.98831000000000     
     1.3714672585532859    0.0011837638348810   -0.0013607775018895
     0.0017958283558824    2.0522883853060283   -0.0044770801022145
    -0.0020083545438352   -0.0044312434303392    2.0511977637267114
   Hf   Nb   Zr   Ta
     8    10     8    10
Direct
  0.4849941466297150  0.3344871271998413  0.9942082424080494
  0.2428223233071310  0.1686811411088110  0.1810900795934156
  0.0038503950988479  0.3330148123886648  0.6579789345138352
  0.2442104017465109  0.8341519386421133  0.4999667982437641
  0.7552145769260225  0.1548794873010488  0.8367863190960048
  0.7611071597267491  0.5114384616037242  0.8373152036249015
  0.5041719892465512  0.6674778777258417  0.3275015379560938
  0.7671191606399738  0.4895452381155048  0.1660996821505250
  0.5063055624149878  0.0020494260381647  0.3285827647108088
  0.9888839548338565  0.0067175225178004  0.3320055403267146
  0.2517419400331531  0.1612626635780827  0.4903268604655730
  0.0011723394956858  0.0090088816937485  0.6569874394922921
  0.9911228717513065  0.6667734707674998  0.3329068168607782
  0.0082823869359298  0.6597458638782095  0.6665325104724895
  0.2448761643815942  0.8314276309317895  0.8214759963243046
  0.7453104082245658  0.1609794081034377  0.4937001545705379
  0.4985526401512214  0.0065568527032743  0.6509083394244788
  0.4890049204357561  0.6569903845749574  0.6620730920062412
  0.2508123459715016  0.1386809321520843  0.8251103141108401
  0.0336852316864448  0.3308771099337454  0.9820225906156533
  0.2329618261380761  0.4927132459393693  0.1792305907022155
  0.5025192504113288  0.9902377183031400  0.0167966356131312
  0.4956642140443402  0.3354324532952084  0.6633872197161690
  0.4895831916530893  0.6735314636551800  0.0085695836179948
  0.7523586205379007  0.8327663608491785  0.5049618477005651
  0.7525290405442729  0.8336644584140063  0.8232287204311676
  0.9858760717245016  0.3291156444350348  0.3556688911211866
  0.2439863127663663  0.5079861280233161  0.4959285691278573
  0.2434298639541974  0.5218010372155669  0.8229705155550998
  0.0140868320666622  0.6826181886240084  0.0022555137199908
  0.2262984659375359  0.8410209776905871  0.1813432022409837
  0.5102775892490873  0.3336330627659981  0.3462509151948174
  0.7511375315620132  0.5059786705598529  0.4978554401901716
  0.7708709734655507  0.8383123327420285  0.1756902748466689
 -0.0018520233553691  0.9861518310458075  0.0109225616643779
  0.7570323196629332  0.1702941954833837  0.1713583015902923
 
  0.00000000E+00  0.00000000E+00  0.00000000E+00
  0.00000000E+00  0.00000000E+00  0.00000000E+00
  0.00000000E+00  0.00000000E+00  0.00000000E+00
  0.00000000E+00  0.00000000E+00  0.00000000E+00
  0.00000000E+00  0.00000000E+00  0.00000000E+00
  0.00000000E+00  0.00000000E+00  0.00000000E+00
  0.00000000E+00  0.00000000E+00  0.00000000E+00
  0.00000000E+00  0.00000000E+00  0.00000000E+00
  0.00000000E+00  0.00000000E+00  0.00000000E+00
  0.00000000E+00  0.00000000E+00  0.00000000E+00
  0.00000000E+00  0.00000000E+00  0.00000000E+00
  0.00000000E+00  0.00000000E+00  0.00000000E+00
  0.00000000E+00  0.00000000E+00  0.00000000E+00
  0.00000000E+00  0.00000000E+00  0.00000000E+00
  0.00000000E+00  0.00000000E+00  0.00000000E+00
  0.00000000E+00  0.00000000E+00  0.00000000E+00
  0.00000000E+00  0.00000000E+00  0.00000000E+00
  0.00000000E+00  0.00000000E+00  0.00000000E+00
  0.00000000E+00  0.00000000E+00  0.00000000E+00
  0.00000000E+00  0.00000000E+00  0.00000000E+00
  0.00000000E+00  0.00000000E+00  0.00000000E+00
  0.00000000E+00  0.00000000E+00  0.00000000E+00
  0.00000000E+00  0.00000000E+00  0.00000000E+00
  0.00000000E+00  0.00000000E+00  0.00000000E+00
  0.00000000E+00  0.00000000E+00  0.00000000E+00
  0.00000000E+00  0.00000000E+00  0.00000000E+00
  0.00000000E+00  0.00000000E+00  0.00000000E+00
  0.00000000E+00  0.00000000E+00  0.00000000E+00
  0.00000000E+00  0.00000000E+00  0.00000000E+00
  0.00000000E+00  0.00000000E+00  0.00000000E+00
  0.00000000E+00  0.00000000E+00  0.00000000E+00
  0.00000000E+00  0.00000000E+00  0.00000000E+00
  0.00000000E+00  0.00000000E+00  0.00000000E+00
  0.00000000E+00  0.00000000E+00  0.00000000E+00
  0.00000000E+00  0.00000000E+00  0.00000000E+00
  0.00000000E+00  0.00000000E+00  0.00000000E+00
