generated by pypospack                  
   4.98831000000000     
     1.3817936184159636   -0.0004342213368664    0.0001288140004967
    -0.0005538038877383    2.0396990901859033   -0.0015338854394318
     0.0001972254465493   -0.0015729501740643    2.0517154105275006
   Ta   Nb   Hf   Zr
    12     8     9     7
Direct
  0.7630074797164349  0.8423771881223512  0.5010916068681204
  0.2389269068501682  0.4943419222752747  0.1734156598558173
  0.2239098923701569  0.5261288047683075  0.8293146899341581
  0.9975912021442356  0.6655682445228343  0.0085255280104964
  0.2229602972343457  0.8346990261699384  0.1769047604777332
  0.7586438409591135  0.4935609678305186  0.4918596549973437
  0.7755439956241423  0.8336696278911355  0.1697875175230691
  0.0170156009236844  0.9960942151833087  0.0079114080342952
  0.7698683232416593  0.5141453353675595  0.8350710882904856
  0.9949248964097059  0.6655186870486383  0.3330789942478145
  0.2587339967562735  0.1594090552977026  0.4937566307131154
  0.2601677429911362  0.1449929069701041  0.8258510262751579
  0.2389644316242860  0.5036405288724936  0.4946462255068946
  0.5041721461840807  0.9851601452481928  0.3257180311284907
  0.9958370821451781  0.9933897750897258  0.3315917048718870
  0.0070909667377541  0.0192309957578446  0.6620733337154890
  0.9856379162186678  0.6584975298614446  0.6575777373508873
  0.4990424169657180  0.9990837779280836  0.6599898649188697
  0.0144922417265927  0.3423516757558022  0.3480090497860429
  0.4836267473176663  0.3456809021970965  0.3483840467937573
  0.4885056444209553  0.9874296129489777  0.0161984406311158
  0.7419414663810394  0.1645800481418751  0.4917429339690627
  0.7635271164776855  0.8364406553112624  0.8288545341676947
  0.4808593414365462  0.3424993695006221  0.9823635128545309
  0.2505132251142408  0.1715750977428180  0.1819854477663777
  0.0083212319790940  0.3299998423872829  0.6660610046635772
  0.2364616343282085  0.8413992394573716  0.5007953248919657
  0.7481545886006148  0.1500898653251311  0.8369176851884439
  0.5111799672580363  0.6619142909391501  0.6603593053886568
  0.7537613559933316  0.1665846262620100  0.1707524879550504
  0.2395517284718175  0.8325095018706158  0.8243789750446056
  0.7535991901478083  0.4885290713034225  0.1714546483247503
  0.5002255897285043  0.6689752673807364  0.3352237845918735
  0.0211295750070254  0.3337581638129091  0.9843156635191420
  0.4944075143941234  0.3405448434745851  0.6717841284548773
  0.4976987061199653  0.6656291919828891  0.0022475632883437
 
  0.00000000E+00  0.00000000E+00  0.00000000E+00
  0.00000000E+00  0.00000000E+00  0.00000000E+00
  0.00000000E+00  0.00000000E+00  0.00000000E+00
  0.00000000E+00  0.00000000E+00  0.00000000E+00
  0.00000000E+00  0.00000000E+00  0.00000000E+00
  0.00000000E+00  0.00000000E+00  0.00000000E+00
  0.00000000E+00  0.00000000E+00  0.00000000E+00
  0.00000000E+00  0.00000000E+00  0.00000000E+00
  0.00000000E+00  0.00000000E+00  0.00000000E+00
  0.00000000E+00  0.00000000E+00  0.00000000E+00
  0.00000000E+00  0.00000000E+00  0.00000000E+00
  0.00000000E+00  0.00000000E+00  0.00000000E+00
  0.00000000E+00  0.00000000E+00  0.00000000E+00
  0.00000000E+00  0.00000000E+00  0.00000000E+00
  0.00000000E+00  0.00000000E+00  0.00000000E+00
  0.00000000E+00  0.00000000E+00  0.00000000E+00
  0.00000000E+00  0.00000000E+00  0.00000000E+00
  0.00000000E+00  0.00000000E+00  0.00000000E+00
  0.00000000E+00  0.00000000E+00  0.00000000E+00
  0.00000000E+00  0.00000000E+00  0.00000000E+00
  0.00000000E+00  0.00000000E+00  0.00000000E+00
  0.00000000E+00  0.00000000E+00  0.00000000E+00
  0.00000000E+00  0.00000000E+00  0.00000000E+00
  0.00000000E+00  0.00000000E+00  0.00000000E+00
  0.00000000E+00  0.00000000E+00  0.00000000E+00
  0.00000000E+00  0.00000000E+00  0.00000000E+00
  0.00000000E+00  0.00000000E+00  0.00000000E+00
  0.00000000E+00  0.00000000E+00  0.00000000E+00
  0.00000000E+00  0.00000000E+00  0.00000000E+00
  0.00000000E+00  0.00000000E+00  0.00000000E+00
  0.00000000E+00  0.00000000E+00  0.00000000E+00
  0.00000000E+00  0.00000000E+00  0.00000000E+00
  0.00000000E+00  0.00000000E+00  0.00000000E+00
  0.00000000E+00  0.00000000E+00  0.00000000E+00
  0.00000000E+00  0.00000000E+00  0.00000000E+00
  0.00000000E+00  0.00000000E+00  0.00000000E+00
