generated by pypospack                  
   4.98831000000000     
     1.3658595506941589   -0.0001949199717529   -0.0021691665339304
    -0.0000638458609870    2.0319962176043749    0.0001068600255295
    -0.0032116046858370    0.0000331819226079    2.0423537645606467
   Nb   Ta   Hf   Zr
    10    13     6     7
Direct
  0.0038431054156516  0.6552168884821800  0.0023301989176466
  0.5015641711446585  0.6659858948208153  0.3424123929608509
  0.2534594785612986  0.4936992402918465  0.4982141803867864
  0.5106953073273970  0.0009571149630209  0.3330906445001065
  0.9920626049182196  0.9985825710947994  0.3369438459577945
  0.0027902907275201  0.6593229223594500  0.6570545800356122
  0.0021239267914895  0.3322382139179217  0.3469717694014444
  0.2349770432309773  0.5104403447107927  0.8281558311466485
  0.4873374200291152  0.3402673731108271  0.6628098160771546
  0.7494866900057174  0.1621409244019895  0.1769906870522177
  0.5228650917603256  0.9968616452564173  0.0110843696935868
  0.2612707630526415  0.8430340952815661  0.4867994537679638
  0.7425037347460015  0.8412368468084527  0.4949278758124175
  0.2468747453142844  0.4990694746089152  0.1774797439473081
  0.7435625194331498  0.4899728313812203  0.5026323503805340
  0.7551364827752473  0.8376859601928298  0.1671845806562347
  0.9777412587603396  0.0119236086392281  0.0075913720511841
  0.7600900092355418  0.5096351349304148  0.8196134064801169
  0.2629302304835029  0.1671467552733941  0.4915022988416539
  0.2772806783931737  0.1538513711501914  0.8319652358661498
  0.4935859177555932  0.9918631527517773  0.6526578278489937
  0.4984730554670560  0.3333391743804658  0.3405187400769159
  0.7370870081853947  0.1698514514704257  0.4982317573536379
  0.2487817589685543  0.8358263012311352  0.1671833589207039
  0.0072776319226862  0.3291807778105376  0.6671115148593610
  0.7175078712593589  0.1607831502222237  0.8233494913060355
  0.4947372893389874  0.6695217950636050  0.6586084525558181
  0.0086494240021837  0.0115594703349978  0.6558550705232659
  0.7650118804956135  0.8287628581079317  0.8351252938934415
  0.4928162258637670  0.3417456087583831  0.9984047543809978
  0.0009505671458118  0.6693906821374161  0.3453149530622439
  0.2390716227642326  0.8391204059513333  0.8415806258161227
  0.7565177415044017  0.4962828073250999  0.1788909288640120
  0.0037054444975256  0.3304821472136691  0.9899169465169901
  0.4986350287121397  0.6581257799214743 -0.0016666420891970
  0.2485949800104636  0.1649082256432602  0.1731642921772257
 
  0.00000000E+00  0.00000000E+00  0.00000000E+00
  0.00000000E+00  0.00000000E+00  0.00000000E+00
  0.00000000E+00  0.00000000E+00  0.00000000E+00
  0.00000000E+00  0.00000000E+00  0.00000000E+00
  0.00000000E+00  0.00000000E+00  0.00000000E+00
  0.00000000E+00  0.00000000E+00  0.00000000E+00
  0.00000000E+00  0.00000000E+00  0.00000000E+00
  0.00000000E+00  0.00000000E+00  0.00000000E+00
  0.00000000E+00  0.00000000E+00  0.00000000E+00
  0.00000000E+00  0.00000000E+00  0.00000000E+00
  0.00000000E+00  0.00000000E+00  0.00000000E+00
  0.00000000E+00  0.00000000E+00  0.00000000E+00
  0.00000000E+00  0.00000000E+00  0.00000000E+00
  0.00000000E+00  0.00000000E+00  0.00000000E+00
  0.00000000E+00  0.00000000E+00  0.00000000E+00
  0.00000000E+00  0.00000000E+00  0.00000000E+00
  0.00000000E+00  0.00000000E+00  0.00000000E+00
  0.00000000E+00  0.00000000E+00  0.00000000E+00
  0.00000000E+00  0.00000000E+00  0.00000000E+00
  0.00000000E+00  0.00000000E+00  0.00000000E+00
  0.00000000E+00  0.00000000E+00  0.00000000E+00
  0.00000000E+00  0.00000000E+00  0.00000000E+00
  0.00000000E+00  0.00000000E+00  0.00000000E+00
  0.00000000E+00  0.00000000E+00  0.00000000E+00
  0.00000000E+00  0.00000000E+00  0.00000000E+00
  0.00000000E+00  0.00000000E+00  0.00000000E+00
  0.00000000E+00  0.00000000E+00  0.00000000E+00
  0.00000000E+00  0.00000000E+00  0.00000000E+00
  0.00000000E+00  0.00000000E+00  0.00000000E+00
  0.00000000E+00  0.00000000E+00  0.00000000E+00
  0.00000000E+00  0.00000000E+00  0.00000000E+00
  0.00000000E+00  0.00000000E+00  0.00000000E+00
  0.00000000E+00  0.00000000E+00  0.00000000E+00
  0.00000000E+00  0.00000000E+00  0.00000000E+00
  0.00000000E+00  0.00000000E+00  0.00000000E+00
  0.00000000E+00  0.00000000E+00  0.00000000E+00
