generated by pypospack                  
   4.98831000000000     
     1.4083805011640156    0.0048120209583833    0.0122267523025865
     0.0071568967211175    2.0681667690980068   -0.0016963148291564
     0.0178408670583111   -0.0017776366204318    2.0560742451438676
   Ta   Nb   Hf   Zr
    10     5     9    12
Direct
  0.5022931722417036  0.6762612645207636  0.0080518451863443
  0.0004493708938566  0.6760286237123100  0.0106819439530668
  0.7432138457831999  0.8321718243583820  0.1568157486136361
  0.9871403941507997  0.9994910472350798  0.3282450961903166
  0.2507213999260375  0.8377436595132784  0.1666272634548294
  0.7646704389577232  0.1525083145188886  0.5047857138144567
  0.2167662190287072  0.5076978170180061  0.5020233423653171
  0.0386755876637624  0.6772817449711893  0.6753045674625725
  0.7366668503960577  0.5114609563674851  0.1507436777526546
  0.2187028222992319  0.8327754676209095  0.4829416302018645
  0.2260389111347773  0.1612738779754859  0.4749123399603241
  0.7369463031609846  0.1575960993991462  0.1674488029794034
  0.2587787443597486  0.8281413529210472  0.8490262696513954
  0.5401904637925842  0.3366379952918655  0.0107138916962273
  0.5046665076322874  0.9870159593320369  0.0120960561891902
  0.5028040696673292  0.9959223715058240  0.3390142278954331
  0.4693312454278024 -0.0006320458811274  0.6503237507258447
 -0.0003347924041154  0.9978096860690412  0.0001075914438198
  0.0283179694344549  0.0031576076268816  0.6735057684465569
  0.9926075665848241  0.6668224125924639  0.3154671513295948
  0.4825069264569232  0.3300427722753738  0.6418347968466441
  0.9736985459917389  0.3250353181556132  0.0054592821900753
  0.7534989580388752  0.5101880364118238  0.8341290338764521
  0.4650312785758015  0.6742163184723456  0.6547883734552324
  0.7291914354541543  0.1628867816967131  0.8251681277403767
  0.5064929549832284  0.3348827317759499  0.3402904747809898
  0.0240110304580229  0.3187450384813971  0.6671410499591522
  0.2638985346128140  0.4952754695106427  0.1506603459930142
  0.9812932240329332  0.3327200787006077  0.3295406073029159
  0.4949808417932377  0.6670353874943319  0.3351814729121296
  0.7801589176565312  0.5110082109571680  0.5234476301040992
  0.7700235658199395  0.8376631867550928  0.5118304564433936
  0.2613092820772904  0.4992082880570970  0.8429660554566291
  0.2590317251404036  0.1629365477915797  0.1692190448703695
  0.7479833888654306  0.8272202814859677  0.8326987458068136
  0.2882262999109247  0.1737755153093387  0.8567988229488932
 
  0.00000000E+00  0.00000000E+00  0.00000000E+00
  0.00000000E+00  0.00000000E+00  0.00000000E+00
  0.00000000E+00  0.00000000E+00  0.00000000E+00
  0.00000000E+00  0.00000000E+00  0.00000000E+00
  0.00000000E+00  0.00000000E+00  0.00000000E+00
  0.00000000E+00  0.00000000E+00  0.00000000E+00
  0.00000000E+00  0.00000000E+00  0.00000000E+00
  0.00000000E+00  0.00000000E+00  0.00000000E+00
  0.00000000E+00  0.00000000E+00  0.00000000E+00
  0.00000000E+00  0.00000000E+00  0.00000000E+00
  0.00000000E+00  0.00000000E+00  0.00000000E+00
  0.00000000E+00  0.00000000E+00  0.00000000E+00
  0.00000000E+00  0.00000000E+00  0.00000000E+00
  0.00000000E+00  0.00000000E+00  0.00000000E+00
  0.00000000E+00  0.00000000E+00  0.00000000E+00
  0.00000000E+00  0.00000000E+00  0.00000000E+00
  0.00000000E+00  0.00000000E+00  0.00000000E+00
  0.00000000E+00  0.00000000E+00  0.00000000E+00
  0.00000000E+00  0.00000000E+00  0.00000000E+00
  0.00000000E+00  0.00000000E+00  0.00000000E+00
  0.00000000E+00  0.00000000E+00  0.00000000E+00
  0.00000000E+00  0.00000000E+00  0.00000000E+00
  0.00000000E+00  0.00000000E+00  0.00000000E+00
  0.00000000E+00  0.00000000E+00  0.00000000E+00
  0.00000000E+00  0.00000000E+00  0.00000000E+00
  0.00000000E+00  0.00000000E+00  0.00000000E+00
  0.00000000E+00  0.00000000E+00  0.00000000E+00
  0.00000000E+00  0.00000000E+00  0.00000000E+00
  0.00000000E+00  0.00000000E+00  0.00000000E+00
  0.00000000E+00  0.00000000E+00  0.00000000E+00
  0.00000000E+00  0.00000000E+00  0.00000000E+00
  0.00000000E+00  0.00000000E+00  0.00000000E+00
  0.00000000E+00  0.00000000E+00  0.00000000E+00
  0.00000000E+00  0.00000000E+00  0.00000000E+00
  0.00000000E+00  0.00000000E+00  0.00000000E+00
  0.00000000E+00  0.00000000E+00  0.00000000E+00
