generated by pypospack                  
   4.98831000000000     
     1.3914638030875750    0.0020272271478681   -0.0022097566189355
     0.0029178697430739    2.0670593422330676    0.0022807612859531
    -0.0031335710852399    0.0022137419281666    2.0485311940499917
   Hf   Nb   Ta   Zr
     8    10     7    11
Direct
 -0.0067005842312829  0.3477520678497805  0.0112157327345008
  0.9942779493814178  0.6608506316159080  0.9885061906053075
  0.2502754070712458  0.8209566159660052  0.1693058569137109
  0.4800824196865022  0.9983257441195722  0.6656656730030761
  0.7517264740617126  0.8248770263700427  0.1807967229628340
  0.7707953323376727  0.8399432246008153  0.4991391863976630
  0.2415795774139779  0.4951846314143091  0.4889274152325089
  0.0097121683145072  0.6657785001011800  0.6744637881874765
  0.2318772518870355  0.1762969433508061  0.5045785026039238
  0.5084603805446269  0.3407564347841054  0.3419406341583932
  0.2653509573647830  0.4884450589693332  0.8313538668451188
  0.9894287903388606  0.3373977984417723  0.3207710897829018
  0.0109731434103050  0.3384584949599634  0.6614083511575628
  0.9874437304454883  0.6613428948122581  0.3401921604876477
  0.2232668345963739  0.8291203863803269  0.4955194552439079
  0.2522477284441575  0.8297803533123435  0.8449910750200679
  0.5046375535010759  0.3522630996592768  0.0001597448357527
  0.7536961065115442  0.8326297642645238  0.8191358151825597
  0.7364473036909454  0.5101098891518430  0.1766036829709367
  0.5059882365573559  0.6680075233200722  0.9900527781321030
  0.0274225408207588  0.0051222519613382  0.3389651664111729
  0.0232618193203642  0.9877059271017706  0.6737352359520923
  0.7536481736837184  0.4956205552226428  0.4930086056946311
  0.4865658861475179  0.3251499399708715  0.6520229517243125
  0.5096607405411318  0.6650329389669779  0.3486351139451115
  0.2662929236202031  0.1753117406914103  0.1656038046143067
 -0.0073097776462940  0.9944777952128289 -0.0083399439273660
  0.7650885222812309  0.1672226853745892  0.5005950652713832
  0.2502198469738021  0.1781014149748771  0.8346744032512794
  0.7525288080108338  0.1742770411539519  0.8251720210174804
  0.2597301578066157  0.5081407228414135  0.1757135667841018
  0.5160077794637541  0.9812056907639933  0.9879975659659052
  0.7377189262546306  0.1708361109964885  0.1715761476940603
  0.4708700718110557 -0.0028483479967286  0.3499627419683927
  0.7363470095938683  0.4853363886000297  0.8203736413980405
  0.4903848099884985  0.6710300607193004  0.6655781897771098
 
  0.00000000E+00  0.00000000E+00  0.00000000E+00
  0.00000000E+00  0.00000000E+00  0.00000000E+00
  0.00000000E+00  0.00000000E+00  0.00000000E+00
  0.00000000E+00  0.00000000E+00  0.00000000E+00
  0.00000000E+00  0.00000000E+00  0.00000000E+00
  0.00000000E+00  0.00000000E+00  0.00000000E+00
  0.00000000E+00  0.00000000E+00  0.00000000E+00
  0.00000000E+00  0.00000000E+00  0.00000000E+00
  0.00000000E+00  0.00000000E+00  0.00000000E+00
  0.00000000E+00  0.00000000E+00  0.00000000E+00
  0.00000000E+00  0.00000000E+00  0.00000000E+00
  0.00000000E+00  0.00000000E+00  0.00000000E+00
  0.00000000E+00  0.00000000E+00  0.00000000E+00
  0.00000000E+00  0.00000000E+00  0.00000000E+00
  0.00000000E+00  0.00000000E+00  0.00000000E+00
  0.00000000E+00  0.00000000E+00  0.00000000E+00
  0.00000000E+00  0.00000000E+00  0.00000000E+00
  0.00000000E+00  0.00000000E+00  0.00000000E+00
  0.00000000E+00  0.00000000E+00  0.00000000E+00
  0.00000000E+00  0.00000000E+00  0.00000000E+00
  0.00000000E+00  0.00000000E+00  0.00000000E+00
  0.00000000E+00  0.00000000E+00  0.00000000E+00
  0.00000000E+00  0.00000000E+00  0.00000000E+00
  0.00000000E+00  0.00000000E+00  0.00000000E+00
  0.00000000E+00  0.00000000E+00  0.00000000E+00
  0.00000000E+00  0.00000000E+00  0.00000000E+00
  0.00000000E+00  0.00000000E+00  0.00000000E+00
  0.00000000E+00  0.00000000E+00  0.00000000E+00
  0.00000000E+00  0.00000000E+00  0.00000000E+00
  0.00000000E+00  0.00000000E+00  0.00000000E+00
  0.00000000E+00  0.00000000E+00  0.00000000E+00
  0.00000000E+00  0.00000000E+00  0.00000000E+00
  0.00000000E+00  0.00000000E+00  0.00000000E+00
  0.00000000E+00  0.00000000E+00  0.00000000E+00
  0.00000000E+00  0.00000000E+00  0.00000000E+00
  0.00000000E+00  0.00000000E+00  0.00000000E+00
