generated by pypospack                  
   4.98831000000000     
     1.4023121209584717    0.0003078008761616   -0.0019391627981244
     0.0003912942825787    2.0719146829877477    0.0042582816000027
    -0.0028542066743970    0.0042134609336038    2.0550573816299651
   Ta   Nb   Zr   Hf
     5    10    12     9
Direct
  0.7309352051818535  0.4999680852406391  0.1773241308777810
  0.5237844989727138  0.6656078557242769  0.0082722072338782
  0.0010207084354481  0.9957253090598754  0.3338572790156170
  0.0402605082755939  0.9967342924312347  0.6496814222176575
  0.5060988796953807  0.6709124893181916  0.3352832910542147
  0.4880207461172124  0.9931817670077109  0.3494583346620880
  0.7386593187674819  0.8259359496000509  0.1872665868978864
  0.2337377297359685  0.1682355592665993  0.4875658635226642
  0.4919107523909920  0.3333417001031394  0.3483530300439630
  0.2699500960312192  0.4978495294580894  0.8486869960103287
  0.9899722880650059  0.3303429152890708  0.3162430198452017
  0.0318450238147879  0.3380098816262094  0.6715438084458220
  0.9844374500321635  0.6742690401962302  0.3178306404729507
  0.2399051102852077  0.8328886626821321  0.4810034482198243
  0.5076913256456905  0.3464320086742735  0.9940578582496544
  0.2586129752508636  0.1660480219713248  0.1700311050930509
  0.9717938888631390 -0.0000151155554377  0.0222038813435894
  0.7596266663753821  0.1651058573325005  0.5017287302478930
  0.2477303077938998  0.1643655273709120  0.8426959520011811
  0.7681216950253591  0.1697854634254320  0.8183806854418199
  0.2576719666771238  0.5031132245469665  0.1693863278022394
  0.5374179461741887  0.9904397861529488  0.0017892332046716
  0.7218055875711723  0.1769935241210024  0.1838373312814522
  0.7446132812100446  0.4968541032716094  0.8219286928395876
  0.4758943189105453  0.6662133131484885  0.6579657790900379
  0.4749682642953206  0.3323908566328276  0.6568393652121480
  0.7657164853711318  0.8347859692884987  0.8127441797738045
  0.9868863812667517  0.3428734442848122  0.0084577452243201
  0.9791761990210059  0.6615240832706718  0.0056659117774600
  0.2581265536681019  0.8313190353978236  0.1677157612586633
  0.4718578531963679  0.9985629496594703  0.6536282720268154
  0.7610774778642451  0.8320270078798219  0.5014497558051066
  0.2256191306063196  0.4971308035604651  0.4761319934190155
  0.0381889582689328  0.6618351118707135  0.6734880456645099
  0.7649774975244749  0.5004230043394736  0.4930487203709513
  0.2518959236189228  0.8387939823519522  0.8544506143521476
 
  0.00000000E+00  0.00000000E+00  0.00000000E+00
  0.00000000E+00  0.00000000E+00  0.00000000E+00
  0.00000000E+00  0.00000000E+00  0.00000000E+00
  0.00000000E+00  0.00000000E+00  0.00000000E+00
  0.00000000E+00  0.00000000E+00  0.00000000E+00
  0.00000000E+00  0.00000000E+00  0.00000000E+00
  0.00000000E+00  0.00000000E+00  0.00000000E+00
  0.00000000E+00  0.00000000E+00  0.00000000E+00
  0.00000000E+00  0.00000000E+00  0.00000000E+00
  0.00000000E+00  0.00000000E+00  0.00000000E+00
  0.00000000E+00  0.00000000E+00  0.00000000E+00
  0.00000000E+00  0.00000000E+00  0.00000000E+00
  0.00000000E+00  0.00000000E+00  0.00000000E+00
  0.00000000E+00  0.00000000E+00  0.00000000E+00
  0.00000000E+00  0.00000000E+00  0.00000000E+00
  0.00000000E+00  0.00000000E+00  0.00000000E+00
  0.00000000E+00  0.00000000E+00  0.00000000E+00
  0.00000000E+00  0.00000000E+00  0.00000000E+00
  0.00000000E+00  0.00000000E+00  0.00000000E+00
  0.00000000E+00  0.00000000E+00  0.00000000E+00
  0.00000000E+00  0.00000000E+00  0.00000000E+00
  0.00000000E+00  0.00000000E+00  0.00000000E+00
  0.00000000E+00  0.00000000E+00  0.00000000E+00
  0.00000000E+00  0.00000000E+00  0.00000000E+00
  0.00000000E+00  0.00000000E+00  0.00000000E+00
  0.00000000E+00  0.00000000E+00  0.00000000E+00
  0.00000000E+00  0.00000000E+00  0.00000000E+00
  0.00000000E+00  0.00000000E+00  0.00000000E+00
  0.00000000E+00  0.00000000E+00  0.00000000E+00
  0.00000000E+00  0.00000000E+00  0.00000000E+00
  0.00000000E+00  0.00000000E+00  0.00000000E+00
  0.00000000E+00  0.00000000E+00  0.00000000E+00
  0.00000000E+00  0.00000000E+00  0.00000000E+00
  0.00000000E+00  0.00000000E+00  0.00000000E+00
  0.00000000E+00  0.00000000E+00  0.00000000E+00
  0.00000000E+00  0.00000000E+00  0.00000000E+00
