generated by pypospack                  
   4.98831000000000     
     1.3930131076368915    0.0010751803990798    0.0070607991359916
     0.0016297084217837    2.0533007701294883    0.0000756260815101
     0.0104962577434277   -0.0000026012177276    2.0436963155297070
   Zr   Hf   Ta   Nb
     7    11     9     9
Direct
  0.7522460617165141  0.4926408386524865  0.5004504241394612
  0.9962298767875268  0.0022676011352374  0.9934902943214098
  0.0069611758084160  0.3165023604108230  0.9828566767411507
  0.0061575401228917  0.6690024463750671  0.6646945521447998
  0.4787482006454583  0.9939131531747488  0.3156218212802149
  0.7609706122505125  0.4897404142727352  0.1694427009075669
  0.5107728199599205  0.6789525201587842  0.0070484194888053
  0.7216313610734921  0.8389008671097025  0.5032871911835280
  0.0043480251371535 -0.0004184687668237  0.6707285138912623
  0.7392925618434217  0.4945962035139961  0.8302788095271856
  0.2309633645173818  0.5020429762871378  0.1491250124837574
  0.0187771099907028  0.6763467659571671  0.3478223795144338
  0.5034167246660409  0.0020713096109926  0.9993933388889544
  0.7486812013239608  0.1717668188783252  0.4994960863968584
  0.4834856018197498  0.6684992996822686  0.3278468969442668
  0.4668945137917647  0.3420911452232833  0.3368787338706002
  0.0256451368441298  0.9973490672114709  0.3375135913260281
  0.7544242490613868  0.1777226512451485  0.1814948353401380
  0.2582361031202640  0.1660730325199127  0.5097406550322841
  0.0344530072081717  0.3282192099195977  0.3469374478912619
  0.0156384700756618  0.3288071256561063  0.6678381770313967
  0.2555856867245409  0.4998023343406519  0.8357661908783783
  0.2857269755566532  0.8394752637297240  0.5195343272257803
  0.2572922383206515  0.8288196243787138  0.8334227452409246
  0.2194641997787488  0.8197564415370603  0.1468996526495919
  0.4811638270857715  0.3318226870963208  0.6668573379464425
  0.4892239136637556  0.3200353635517901  0.9929672414088300
  0.7438679577866243  0.8218569116183143  0.8263378329413211
  0.2502539650680117  0.1761404475043011  0.1643811206581940
  0.2457130770974547  0.4963803060640923  0.5141208551364357
  0.9914368647204014  0.6730389986409204  0.9887002814358158
  0.4971110348103825  0.0051202379587250  0.6799100910135666
  0.7365288685437360  0.1785928155606963  0.8176031700929501
  0.7745737095203665  0.8402641910101539  0.1731325339619418
  0.2635553033970852  0.1662016219533974  0.8231129870523192
  0.4905126601612571  0.6656164168269773  0.6752620740121347
 
  0.00000000E+00  0.00000000E+00  0.00000000E+00
  0.00000000E+00  0.00000000E+00  0.00000000E+00
  0.00000000E+00  0.00000000E+00  0.00000000E+00
  0.00000000E+00  0.00000000E+00  0.00000000E+00
  0.00000000E+00  0.00000000E+00  0.00000000E+00
  0.00000000E+00  0.00000000E+00  0.00000000E+00
  0.00000000E+00  0.00000000E+00  0.00000000E+00
  0.00000000E+00  0.00000000E+00  0.00000000E+00
  0.00000000E+00  0.00000000E+00  0.00000000E+00
  0.00000000E+00  0.00000000E+00  0.00000000E+00
  0.00000000E+00  0.00000000E+00  0.00000000E+00
  0.00000000E+00  0.00000000E+00  0.00000000E+00
  0.00000000E+00  0.00000000E+00  0.00000000E+00
  0.00000000E+00  0.00000000E+00  0.00000000E+00
  0.00000000E+00  0.00000000E+00  0.00000000E+00
  0.00000000E+00  0.00000000E+00  0.00000000E+00
  0.00000000E+00  0.00000000E+00  0.00000000E+00
  0.00000000E+00  0.00000000E+00  0.00000000E+00
  0.00000000E+00  0.00000000E+00  0.00000000E+00
  0.00000000E+00  0.00000000E+00  0.00000000E+00
  0.00000000E+00  0.00000000E+00  0.00000000E+00
  0.00000000E+00  0.00000000E+00  0.00000000E+00
  0.00000000E+00  0.00000000E+00  0.00000000E+00
  0.00000000E+00  0.00000000E+00  0.00000000E+00
  0.00000000E+00  0.00000000E+00  0.00000000E+00
  0.00000000E+00  0.00000000E+00  0.00000000E+00
  0.00000000E+00  0.00000000E+00  0.00000000E+00
  0.00000000E+00  0.00000000E+00  0.00000000E+00
  0.00000000E+00  0.00000000E+00  0.00000000E+00
  0.00000000E+00  0.00000000E+00  0.00000000E+00
  0.00000000E+00  0.00000000E+00  0.00000000E+00
  0.00000000E+00  0.00000000E+00  0.00000000E+00
  0.00000000E+00  0.00000000E+00  0.00000000E+00
  0.00000000E+00  0.00000000E+00  0.00000000E+00
  0.00000000E+00  0.00000000E+00  0.00000000E+00
  0.00000000E+00  0.00000000E+00  0.00000000E+00
