generated by pypospack                  
   4.98831000000000     
     1.4049587408809241    0.0014263724944376    0.0040796887686878
     0.0021224709755232    2.0593517583590559   -0.0000332501868676
     0.0060666458781496   -0.0002440008918111    2.0464360840333069
   Hf   Ta   Zr   Nb
    11     5     9    11
Direct
  0.4837647723514547  0.0131058441555755  0.9985336174675566
  0.2667658819839162  0.5039415609301360  0.1664145346708849
  0.4959229550877067  0.6633736381112874  0.6491264769894244
  0.2561079716589025  0.5068943716705195  0.8441606927915660
  0.2353581132545897  0.1720135531644253  0.4883593691207259
  0.0071756510131685  0.3297950789970871  0.0075728553058304
  0.9652073631631909  0.6658535529045475  0.0224973819022491
  0.2731611637938609  0.8155147938474513  0.1640161399726987
  0.4682186232002974  0.9983501726265389  0.6635831572213838
  0.7638396337739671  0.8383222694291675  0.5034258107174162
  0.2515009293641258  0.8145673742336327  0.8441110319582252
  0.7287592929865707  0.4945216543313827  0.1783788737059419
  0.0404517146220215  0.9980198294210798  0.6680030434548015
  0.5134613062066421  0.6653383804174784  0.3461541530896746
  0.7723050235160722  0.5034307670788609  0.4945099309388326
  0.9826737240408960  0.6695700437186330  0.3261696497036400
  0.0029978343976398  0.9903252074743988  0.3149199605725667
  0.0083290867524263  0.0043544842762015  0.0058251292764832
  0.7617967232558585  0.1652164159854794  0.5002872387382306
  0.7600890364277882  0.1641792817068871  0.8246866994063818
  0.7285199274177279  0.1757608285192842  0.1762513621524904
  0.4959886058412413  0.3361951496761804  0.6587446394046350
  0.7636505680289696  0.8374268513730397  0.8189042458265856
  0.2250675904329464  0.4969888878489148  0.4917372149123498
  0.7538469624530578  0.4969914554182092  0.8286322351610298
  0.2614091462267412  0.1786993941640824  0.1820843863610151
  0.0148257014441197  0.6685834886165543  0.6548673491540721
  0.5391851811810642  0.6656851526127637  0.0064732195678452
  0.7217300747979498  0.8304992539358294  0.1810407972856760
  0.5052471335695259  0.3445569483425709  0.3427319246814411
  0.9875170851689922  0.3431713660902531  0.3196242891735026
  0.0087081988231840  0.3320004578683462  0.6773830066219059
  0.2428393831459129  0.8300900922323323  0.4893139909015194
  0.4847882884756809  0.3192476406393321  0.0002184362657152
  0.2368489805005311  0.1747650482290525  0.8265145159199491
  0.4919373716412593  0.9926587099524834  0.3347426396057675
 
  0.00000000E+00  0.00000000E+00  0.00000000E+00
  0.00000000E+00  0.00000000E+00  0.00000000E+00
  0.00000000E+00  0.00000000E+00  0.00000000E+00
  0.00000000E+00  0.00000000E+00  0.00000000E+00
  0.00000000E+00  0.00000000E+00  0.00000000E+00
  0.00000000E+00  0.00000000E+00  0.00000000E+00
  0.00000000E+00  0.00000000E+00  0.00000000E+00
  0.00000000E+00  0.00000000E+00  0.00000000E+00
  0.00000000E+00  0.00000000E+00  0.00000000E+00
  0.00000000E+00  0.00000000E+00  0.00000000E+00
  0.00000000E+00  0.00000000E+00  0.00000000E+00
  0.00000000E+00  0.00000000E+00  0.00000000E+00
  0.00000000E+00  0.00000000E+00  0.00000000E+00
  0.00000000E+00  0.00000000E+00  0.00000000E+00
  0.00000000E+00  0.00000000E+00  0.00000000E+00
  0.00000000E+00  0.00000000E+00  0.00000000E+00
  0.00000000E+00  0.00000000E+00  0.00000000E+00
  0.00000000E+00  0.00000000E+00  0.00000000E+00
  0.00000000E+00  0.00000000E+00  0.00000000E+00
  0.00000000E+00  0.00000000E+00  0.00000000E+00
  0.00000000E+00  0.00000000E+00  0.00000000E+00
  0.00000000E+00  0.00000000E+00  0.00000000E+00
  0.00000000E+00  0.00000000E+00  0.00000000E+00
  0.00000000E+00  0.00000000E+00  0.00000000E+00
  0.00000000E+00  0.00000000E+00  0.00000000E+00
  0.00000000E+00  0.00000000E+00  0.00000000E+00
  0.00000000E+00  0.00000000E+00  0.00000000E+00
  0.00000000E+00  0.00000000E+00  0.00000000E+00
  0.00000000E+00  0.00000000E+00  0.00000000E+00
  0.00000000E+00  0.00000000E+00  0.00000000E+00
  0.00000000E+00  0.00000000E+00  0.00000000E+00
  0.00000000E+00  0.00000000E+00  0.00000000E+00
  0.00000000E+00  0.00000000E+00  0.00000000E+00
  0.00000000E+00  0.00000000E+00  0.00000000E+00
  0.00000000E+00  0.00000000E+00  0.00000000E+00
  0.00000000E+00  0.00000000E+00  0.00000000E+00
