generated by pypospack                  
   4.98831000000000     
     1.3770945151766110   -0.0004328734959417   -0.0000641780496737
    -0.0006323755400290    2.0579826367772664   -0.0054646186671743
    -0.0000590390370491   -0.0054103706091909    2.0620019414979787
   Ta   Nb   Hf   Zr
     8    10    10     8
Direct
  0.9913824674952374  0.3333234375918985  0.3586832121099259
  0.2408516590885050  0.5081718109552624  0.4993637293902199
  0.2370389024390316  0.5250392863047452  0.8234516743126854
  0.0082752942693511  0.6829691604535916  0.0038094573900135
  0.2268428520463147  0.8317493512276435  0.1915966448854344
  0.5050515025271824  0.3412121181022904  0.3529766889241266
  0.7538911417981463  0.5056320787625574  0.5011268900245444
  0.7706804749474375  0.8306703480280162  0.1821277105360623
  0.5044742093818474  0.9977141534406778  0.3303660376018709
  0.9942091581683846  0.0048074890174934  0.3317938297207804
  0.2518194891599009  0.1615884352323802  0.4894376170449862
  0.0013035270869794  0.0128949260653170  0.6581409967161326
  0.9917939457930128  0.6634606668018946  0.3351654811757401
  0.0051399056962412  0.6619565167174785  0.6677167470552196
  0.2463613944702910  0.8284195690096063  0.8149226246565711
  0.7487088343261518  0.1622496190783464  0.4903221253857669
  0.5038992053614751  0.0063183016552397  0.6445560535620010
  0.4895112610912328  0.6595035379554364  0.6630832094501665
  0.4715242206097648  0.3434346753509772  0.9840279783267977
  0.0104255096928221  0.9837945064518856  0.0056594988998396
  0.2527299039236947  0.1730500464126544  0.1835997610995250
  0.0045337017783790  0.3304816098573717  0.6581665732662773
  0.2425280186847229  0.8337465461421484  0.5006612875185351
  0.7500980815224492  0.1762910049288549  0.1678358648980426
  0.7432858802569063  0.1595254905901655  0.8369913302257158
  0.7611710412009699  0.5084709781227025  0.8390445371606685
  0.5031829438494398  0.6620519203536894  0.3329751604036982
  0.7620595997935691  0.4916640273283032  0.1645262523874084
  0.2733911778654133  0.1377626536462602  0.8195466866299443
  0.0349398859407210  0.3283481700067741  0.9775252810588866
  0.2327651700501659  0.4934449452880431  0.1764839316473724
  0.4952198797396659  0.9787892095450229  0.0210880548236958
  0.4959311995368362  0.3371856076325195  0.6609160588342164
  0.4906055957375120  0.6749905308020796  0.0083010852058542
  0.7545403765205300  0.8339949703613498  0.5038966151601414
  0.7498345881497176  0.8352933007793409  0.8201103125111406
 
  0.00000000E+00  0.00000000E+00  0.00000000E+00
  0.00000000E+00  0.00000000E+00  0.00000000E+00
  0.00000000E+00  0.00000000E+00  0.00000000E+00
  0.00000000E+00  0.00000000E+00  0.00000000E+00
  0.00000000E+00  0.00000000E+00  0.00000000E+00
  0.00000000E+00  0.00000000E+00  0.00000000E+00
  0.00000000E+00  0.00000000E+00  0.00000000E+00
  0.00000000E+00  0.00000000E+00  0.00000000E+00
  0.00000000E+00  0.00000000E+00  0.00000000E+00
  0.00000000E+00  0.00000000E+00  0.00000000E+00
  0.00000000E+00  0.00000000E+00  0.00000000E+00
  0.00000000E+00  0.00000000E+00  0.00000000E+00
  0.00000000E+00  0.00000000E+00  0.00000000E+00
  0.00000000E+00  0.00000000E+00  0.00000000E+00
  0.00000000E+00  0.00000000E+00  0.00000000E+00
  0.00000000E+00  0.00000000E+00  0.00000000E+00
  0.00000000E+00  0.00000000E+00  0.00000000E+00
  0.00000000E+00  0.00000000E+00  0.00000000E+00
  0.00000000E+00  0.00000000E+00  0.00000000E+00
  0.00000000E+00  0.00000000E+00  0.00000000E+00
  0.00000000E+00  0.00000000E+00  0.00000000E+00
  0.00000000E+00  0.00000000E+00  0.00000000E+00
  0.00000000E+00  0.00000000E+00  0.00000000E+00
  0.00000000E+00  0.00000000E+00  0.00000000E+00
  0.00000000E+00  0.00000000E+00  0.00000000E+00
  0.00000000E+00  0.00000000E+00  0.00000000E+00
  0.00000000E+00  0.00000000E+00  0.00000000E+00
  0.00000000E+00  0.00000000E+00  0.00000000E+00
  0.00000000E+00  0.00000000E+00  0.00000000E+00
  0.00000000E+00  0.00000000E+00  0.00000000E+00
  0.00000000E+00  0.00000000E+00  0.00000000E+00
  0.00000000E+00  0.00000000E+00  0.00000000E+00
  0.00000000E+00  0.00000000E+00  0.00000000E+00
  0.00000000E+00  0.00000000E+00  0.00000000E+00
  0.00000000E+00  0.00000000E+00  0.00000000E+00
  0.00000000E+00  0.00000000E+00  0.00000000E+00
