generated by pypospack                  
   4.98831000000000     
     1.3866771771079642    0.0014221017795999    0.0033840801355267
     0.0021551338939261    2.0438923724637323   -0.0003340171254009
     0.0050509881181495   -0.0003958211742717    2.0387490244850053
   Ta   Nb   Hf   Zr
    11     9     9     7
Direct
  0.2435465965491701  0.1695381417610112  0.5112193101424569
  0.0363787261395217  0.3303783047949741  0.3433151943682836
  0.0129929606414856  0.3348663195969940  0.6707429154699190
  0.2663807197395323  0.5019674448330140  0.8341399798492359
  0.2841406914592543  0.8314857746381162  0.5113471702726594
  0.2641429135315044  0.8236721761099015  0.1515308763214518
  0.4842819027823265  0.3314941616073029  0.6674243553197777
  0.4873080802865898  0.3176129023293346  0.9907723859000916
  0.2506652940552599  0.5001162739227406  0.5081782513235308
  0.4784340226418530  0.6688079465426896  0.3312429448877067
  0.5075526585481800  0.0035339883964780  0.0023160512773078
  0.5129884123171294  0.6736185306270854  0.0048435840302968
  0.7355284029931503  0.8268001923628110  0.8398819039821248
  0.2485602663860108  0.1687325790411573  0.1592682437411228
  0.9886488006119780  0.6784202590121091  0.0034211547287244
  0.4991403731958892  0.0092922392428306  0.6748280501838761
  0.7350327905450098  0.1701279278264103  0.8242250812363697
  0.7419010110915225  0.8294132424848523  0.1652612418909470
  0.2637517812909477  0.1605490441357381  0.8250921530018772
  0.4921372059665101  0.6579166800618292  0.6667158614676781
  0.2678858216694827  0.8288160815977510  0.8395219232275086
  0.7180882723443460  0.8325043040063552  0.5018598714902437
  0.7331038279334379  0.4989020767112325  0.8341662406601074
  0.2456182429179255  0.5073664075928903  0.1528965454260278
  0.0203199987394067  0.6813759758405084  0.3379976209004692
  0.7558856793449178  0.1752657345990566  0.4977965785488134
  0.4630827330330179  0.3343416832820335  0.3352374870230300
  0.0174603524982419  0.9941406023996079  0.3342134667924251
  0.7558109401669048  0.1810338325762508  0.1763943951119402
  0.7472545490732139  0.4943142068424121  0.4975152296576343
  0.9927643773358655  0.9977492577632162  0.9995951135951362
  0.0115426936789048  0.3228942539403484  0.9800048747593310
  0.0031538808136149  0.6662518803071379  0.6682705691462860
  0.4844350625261318  0.0005089066387774  0.3217390888404940
  0.7523833705202495  0.4982873706912166  0.1684426870844889
  0.9976845866315297  0.9979182958838361  0.6685785983406183
 
  0.00000000E+00  0.00000000E+00  0.00000000E+00
  0.00000000E+00  0.00000000E+00  0.00000000E+00
  0.00000000E+00  0.00000000E+00  0.00000000E+00
  0.00000000E+00  0.00000000E+00  0.00000000E+00
  0.00000000E+00  0.00000000E+00  0.00000000E+00
  0.00000000E+00  0.00000000E+00  0.00000000E+00
  0.00000000E+00  0.00000000E+00  0.00000000E+00
  0.00000000E+00  0.00000000E+00  0.00000000E+00
  0.00000000E+00  0.00000000E+00  0.00000000E+00
  0.00000000E+00  0.00000000E+00  0.00000000E+00
  0.00000000E+00  0.00000000E+00  0.00000000E+00
  0.00000000E+00  0.00000000E+00  0.00000000E+00
  0.00000000E+00  0.00000000E+00  0.00000000E+00
  0.00000000E+00  0.00000000E+00  0.00000000E+00
  0.00000000E+00  0.00000000E+00  0.00000000E+00
  0.00000000E+00  0.00000000E+00  0.00000000E+00
  0.00000000E+00  0.00000000E+00  0.00000000E+00
  0.00000000E+00  0.00000000E+00  0.00000000E+00
  0.00000000E+00  0.00000000E+00  0.00000000E+00
  0.00000000E+00  0.00000000E+00  0.00000000E+00
  0.00000000E+00  0.00000000E+00  0.00000000E+00
  0.00000000E+00  0.00000000E+00  0.00000000E+00
  0.00000000E+00  0.00000000E+00  0.00000000E+00
  0.00000000E+00  0.00000000E+00  0.00000000E+00
  0.00000000E+00  0.00000000E+00  0.00000000E+00
  0.00000000E+00  0.00000000E+00  0.00000000E+00
  0.00000000E+00  0.00000000E+00  0.00000000E+00
  0.00000000E+00  0.00000000E+00  0.00000000E+00
  0.00000000E+00  0.00000000E+00  0.00000000E+00
  0.00000000E+00  0.00000000E+00  0.00000000E+00
  0.00000000E+00  0.00000000E+00  0.00000000E+00
  0.00000000E+00  0.00000000E+00  0.00000000E+00
  0.00000000E+00  0.00000000E+00  0.00000000E+00
  0.00000000E+00  0.00000000E+00  0.00000000E+00
  0.00000000E+00  0.00000000E+00  0.00000000E+00
  0.00000000E+00  0.00000000E+00  0.00000000E+00
