generated by pypospack                  
   4.98831000000000     
     1.4105055818413017   -0.0017931128663788   -0.0015176240232585
    -0.0024660799704657    2.0478948387332596   -0.0062375019790890
    -0.0023266961504357   -0.0063461363461832    2.0658509143724486
   Hf   Zr   Nb   Ta
    10    11     6     9
Direct
  0.7248480450111653  0.5066749379796363  0.1676902731887769
  0.2760509263175225  0.1732137536962743  0.8428981062598941
  0.9909121017275536  0.0007240906528798  0.9985893217383246
  0.9863643003159788  0.3368025132053211  0.6731645867593380
 -0.0083343297109459  0.0096341656142887  0.6891458495810882
  0.0179265391344673  0.6705580316510629  0.3180202898477289
  0.5162406025055687  0.0005788135292386  0.3338401719043850
  0.5214311593727328  0.3303084697207853  0.6563609767109398
  0.9722100202286889  0.3281654017012471  0.9938014119019927
  0.7338696789676946  0.8207837452532288  0.8320634404525259
  0.5052840704605918  0.0030996988847636  0.6586603009214945
  0.2795628892850139  0.4810663821562560  0.1600134031759484
  0.9920392007466819  0.3428761962741714  0.3281142151532397
  0.4764875212746891  0.6823322882467679  0.3306970383231317
  0.2246684974331234  0.1682821901723700  0.4925230821891986
  0.0078263824383559  0.6692380008196314  0.0036148015914566
  0.7435526793472679  0.5179810873152297  0.4992874361957415
  0.7679987066701568  0.8256808190373054  0.5070828531318083
  0.2648623677295062  0.4908278333838022  0.8383877599584806
  0.2594746023568360  0.1658443084529363  0.1644411954906144
  0.2260234802337944  0.8307397594137608  0.5112460781146014
  0.7403172006117767  0.1665148830425033  0.1681266031444305
  0.7207709611562831  0.1605547822176356  0.8411498170521406
  0.2593967309898203  0.8275858139266318  0.8320208672079125
  0.5395982421808556  0.3272851688756176 -0.0042414889280918
  0.7395106652003868  0.5129180821427364  0.8334148522471686
  0.5029647437637941  0.9941421791976323  0.0041525022073554
  0.5238377750725122  0.3223181197259112  0.3475264947779121
  0.7331023749681191  0.8335028310473787  0.1556201583973074
  0.9775911203864045  0.9945529283474231  0.3121722105521363
  0.2573960709490438  0.8538338645698517  0.1607633035418436
  0.7828655990726342  0.1603177204134254  0.4873413828616184
  0.4860652283347869  0.6776389107879522  0.0012999969261312
  0.4830259851314243  0.6594270930828073  0.6725983901553128
  0.2612587269862215  0.5030563615079868  0.5092769639832363
  0.0129821333494875  0.6509447739535609  0.6791363532828953
 
  0.00000000E+00  0.00000000E+00  0.00000000E+00
  0.00000000E+00  0.00000000E+00  0.00000000E+00
  0.00000000E+00  0.00000000E+00  0.00000000E+00
  0.00000000E+00  0.00000000E+00  0.00000000E+00
  0.00000000E+00  0.00000000E+00  0.00000000E+00
  0.00000000E+00  0.00000000E+00  0.00000000E+00
  0.00000000E+00  0.00000000E+00  0.00000000E+00
  0.00000000E+00  0.00000000E+00  0.00000000E+00
  0.00000000E+00  0.00000000E+00  0.00000000E+00
  0.00000000E+00  0.00000000E+00  0.00000000E+00
  0.00000000E+00  0.00000000E+00  0.00000000E+00
  0.00000000E+00  0.00000000E+00  0.00000000E+00
  0.00000000E+00  0.00000000E+00  0.00000000E+00
  0.00000000E+00  0.00000000E+00  0.00000000E+00
  0.00000000E+00  0.00000000E+00  0.00000000E+00
  0.00000000E+00  0.00000000E+00  0.00000000E+00
  0.00000000E+00  0.00000000E+00  0.00000000E+00
  0.00000000E+00  0.00000000E+00  0.00000000E+00
  0.00000000E+00  0.00000000E+00  0.00000000E+00
  0.00000000E+00  0.00000000E+00  0.00000000E+00
  0.00000000E+00  0.00000000E+00  0.00000000E+00
  0.00000000E+00  0.00000000E+00  0.00000000E+00
  0.00000000E+00  0.00000000E+00  0.00000000E+00
  0.00000000E+00  0.00000000E+00  0.00000000E+00
  0.00000000E+00  0.00000000E+00  0.00000000E+00
  0.00000000E+00  0.00000000E+00  0.00000000E+00
  0.00000000E+00  0.00000000E+00  0.00000000E+00
  0.00000000E+00  0.00000000E+00  0.00000000E+00
  0.00000000E+00  0.00000000E+00  0.00000000E+00
  0.00000000E+00  0.00000000E+00  0.00000000E+00
  0.00000000E+00  0.00000000E+00  0.00000000E+00
  0.00000000E+00  0.00000000E+00  0.00000000E+00
  0.00000000E+00  0.00000000E+00  0.00000000E+00
  0.00000000E+00  0.00000000E+00  0.00000000E+00
  0.00000000E+00  0.00000000E+00  0.00000000E+00
  0.00000000E+00  0.00000000E+00  0.00000000E+00
