generated by pypospack                  
   4.98831000000000     
     1.3967187534047272   -0.0008815492615707   -0.0070585344309748
    -0.0012294293348527    2.0696159512789634    0.0011774353426484
    -0.0104336349012080    0.0014051028070537    2.0472650429100572
   Ta   Hf   Nb   Zr
     8    11     8     9
Direct
  0.7517517481161993  0.8419913587717210  0.1566999983381322
  0.2407005137406049  0.1574850022646701  0.4974904604608076
  0.0057818063991358  0.3156184908952077  0.3475954730005656
  0.2637302888428715  0.5063787365237270  0.8175407080074056
  0.5160401390876463  0.6784131989557631  0.3204183078376795
  0.5304998938521943  0.6611293020043385  0.6610521779273033
  0.9802334260220547  0.6630081968391708  0.6668143091921052
  0.9958102796698134  0.9945180018543036  0.3374725870105088
  0.4747581988905438  0.3329246579577783  0.0004959936693496
  0.7663073285501028  0.4931675951285171  0.1661475617965513
  0.2675993268079949  0.8189969171027975  0.8074856310626810
  0.7485307866535302  0.4959362936342225  0.8388222242440381
  0.2247450535843828  0.4962963229403025  0.1871573525949049
  0.9758726233744021  0.6866782021141586  0.3344819843430820
  0.4813297186120530  0.6665672063237624  0.0184850696050850
  0.5179418393493734  0.0187320639037862  0.6680857437132411
  0.9865038737176053  0.0075560288223881  0.6655488475584204
  0.7406135881310008  0.8262174679332658  0.8407441360328531
  0.4804035580402601  0.0063215469211026  0.9988837753406531
  0.7581245814011315  0.1694001970340207  0.4910322083081138
  0.2178474994269692  0.1695806066923083  0.1722682987282537
  0.7537110838774207  0.1850055565422025  0.8446547294133990
  0.2479853330541233  0.1773487182308706  0.8287585109916473
  0.0239770115512412  0.3324202878485328  0.9884297417844568
  0.7418580404567545  0.8293929228970617  0.5031058082956853
  0.2465890253514942  0.8356916016433789  0.1849548076587278
  0.4960487949532484  0.3218025473611335  0.6755154134256977
  0.4865787522406012  0.3164061402793659  0.3269181918268798
  0.7412511046641256  0.4954043549458832  0.4948907240270656
  0.0204912716581038  0.9994261326889142  0.9953046210228160
  0.4978958933044905  0.0002622930074778  0.3276454850381958
  0.2587313024466195  0.8327389483073314  0.5023852816590338
  0.7707059313348754  0.1648951451976275  0.1598424065255536
  0.0255298705578166  0.6732379550937679  0.0009460772983080
  0.0048779335015404  0.3279140387553496  0.6668761726175637
  0.2586445787776699  0.5011529625837745  0.5050511796432366
 
  0.00000000E+00  0.00000000E+00  0.00000000E+00
  0.00000000E+00  0.00000000E+00  0.00000000E+00
  0.00000000E+00  0.00000000E+00  0.00000000E+00
  0.00000000E+00  0.00000000E+00  0.00000000E+00
  0.00000000E+00  0.00000000E+00  0.00000000E+00
  0.00000000E+00  0.00000000E+00  0.00000000E+00
  0.00000000E+00  0.00000000E+00  0.00000000E+00
  0.00000000E+00  0.00000000E+00  0.00000000E+00
  0.00000000E+00  0.00000000E+00  0.00000000E+00
  0.00000000E+00  0.00000000E+00  0.00000000E+00
  0.00000000E+00  0.00000000E+00  0.00000000E+00
  0.00000000E+00  0.00000000E+00  0.00000000E+00
  0.00000000E+00  0.00000000E+00  0.00000000E+00
  0.00000000E+00  0.00000000E+00  0.00000000E+00
  0.00000000E+00  0.00000000E+00  0.00000000E+00
  0.00000000E+00  0.00000000E+00  0.00000000E+00
  0.00000000E+00  0.00000000E+00  0.00000000E+00
  0.00000000E+00  0.00000000E+00  0.00000000E+00
  0.00000000E+00  0.00000000E+00  0.00000000E+00
  0.00000000E+00  0.00000000E+00  0.00000000E+00
  0.00000000E+00  0.00000000E+00  0.00000000E+00
  0.00000000E+00  0.00000000E+00  0.00000000E+00
  0.00000000E+00  0.00000000E+00  0.00000000E+00
  0.00000000E+00  0.00000000E+00  0.00000000E+00
  0.00000000E+00  0.00000000E+00  0.00000000E+00
  0.00000000E+00  0.00000000E+00  0.00000000E+00
  0.00000000E+00  0.00000000E+00  0.00000000E+00
  0.00000000E+00  0.00000000E+00  0.00000000E+00
  0.00000000E+00  0.00000000E+00  0.00000000E+00
  0.00000000E+00  0.00000000E+00  0.00000000E+00
  0.00000000E+00  0.00000000E+00  0.00000000E+00
  0.00000000E+00  0.00000000E+00  0.00000000E+00
  0.00000000E+00  0.00000000E+00  0.00000000E+00
  0.00000000E+00  0.00000000E+00  0.00000000E+00
  0.00000000E+00  0.00000000E+00  0.00000000E+00
  0.00000000E+00  0.00000000E+00  0.00000000E+00
