generated by pypospack                  
   4.98831000000000     
     1.3795662839198148   -0.0028560028998682    0.0082629180316819
    -0.0041707686097948    2.0579122147662132   -0.0041655003538655
     0.0120146620665983   -0.0043305885597103    2.0330399440645683
   Nb   Hf   Ta   Zr
    11     8     9     8
Direct
  0.5200903287303589  0.6582797827925616  0.0053680226222023
  0.9958345802948170  0.9795645758282721  0.3266907164986831
  0.4987334599771465  0.9869389347592743  0.3457193029858100
  0.7370138558928926  0.8324868097931885  0.1786153836517327
  0.5045076740634448  0.3475151547658613  0.3341762721925928
  0.2646812050071863  0.5045381602426254  0.8389207291179338
  0.9860741396073768  0.3519464847231421  0.3122083826071473
  0.0047049791670976  0.3466618001961040  0.6834526597552599
  0.2456124386141839  0.8311432071581963  0.4906734859358253
  0.4890252107164553  0.3386790495117130  0.9934901727328170
  0.2531731158144914  0.1665477446934879  0.8390722958372380
  0.2266812248549412  0.1706363201755115  0.4853588402070994
  0.0081822876871739  0.3421902728668098  0.9995829365746272
  0.9866220771907707  0.6601116370538945  0.0073269167548212
  0.2666073516546439  0.8296787261283223  0.1661199820863031
  0.4713635778531260  0.0079308347574637  0.6574656541222751
  0.7547252667630677  0.8295284751762990  0.5054272755241459
  0.0130833871665448  0.6574681272514969  0.6715696025851005
  0.2744624613086808  0.8273511892979041  0.8454647281695400
  0.2617435730265528  0.5077923165617652  0.1717363910834588
  0.7370736688145829  0.4973101474831405  0.8348117455684070
  0.7316103541743412  0.5000740571537872  0.1702963491121827
  0.0342241810679154  0.9941609025167168  0.6720616611380570
  0.5053653746492970  0.6667444595048305  0.3379595274798639
  0.7504283267088021  0.5064447483519626  0.4936800157306688
  0.9904930285332219  0.6674959854389997  0.3253026502874048
  0.4932298732570836  0.6517554468793024  0.6607056771353711
  0.5196477473614078  0.0041091438769808 -0.0002264513647785
  0.2574067570671067  0.1674673177263377  0.1740790483878828
 -0.0138926493060598  0.9987879247761587  0.0008359391380214
  0.7697630054919530  0.1655759726576634  0.4975622455325105
  0.7555577395646217  0.1712341754720335  0.8250333116126320
  0.7334241271902446  0.1714320669859691  0.1742061460211467
  0.4931131351491522  0.3360807516070733  0.6654183007400857
  0.7397854921620588  0.8322606127746469  0.8214378386025645
  0.2398426427233166  0.4920836830604975  0.4883952438333758
 
  0.00000000E+00  0.00000000E+00  0.00000000E+00
  0.00000000E+00  0.00000000E+00  0.00000000E+00
  0.00000000E+00  0.00000000E+00  0.00000000E+00
  0.00000000E+00  0.00000000E+00  0.00000000E+00
  0.00000000E+00  0.00000000E+00  0.00000000E+00
  0.00000000E+00  0.00000000E+00  0.00000000E+00
  0.00000000E+00  0.00000000E+00  0.00000000E+00
  0.00000000E+00  0.00000000E+00  0.00000000E+00
  0.00000000E+00  0.00000000E+00  0.00000000E+00
  0.00000000E+00  0.00000000E+00  0.00000000E+00
  0.00000000E+00  0.00000000E+00  0.00000000E+00
  0.00000000E+00  0.00000000E+00  0.00000000E+00
  0.00000000E+00  0.00000000E+00  0.00000000E+00
  0.00000000E+00  0.00000000E+00  0.00000000E+00
  0.00000000E+00  0.00000000E+00  0.00000000E+00
  0.00000000E+00  0.00000000E+00  0.00000000E+00
  0.00000000E+00  0.00000000E+00  0.00000000E+00
  0.00000000E+00  0.00000000E+00  0.00000000E+00
  0.00000000E+00  0.00000000E+00  0.00000000E+00
  0.00000000E+00  0.00000000E+00  0.00000000E+00
  0.00000000E+00  0.00000000E+00  0.00000000E+00
  0.00000000E+00  0.00000000E+00  0.00000000E+00
  0.00000000E+00  0.00000000E+00  0.00000000E+00
  0.00000000E+00  0.00000000E+00  0.00000000E+00
  0.00000000E+00  0.00000000E+00  0.00000000E+00
  0.00000000E+00  0.00000000E+00  0.00000000E+00
  0.00000000E+00  0.00000000E+00  0.00000000E+00
  0.00000000E+00  0.00000000E+00  0.00000000E+00
  0.00000000E+00  0.00000000E+00  0.00000000E+00
  0.00000000E+00  0.00000000E+00  0.00000000E+00
  0.00000000E+00  0.00000000E+00  0.00000000E+00
  0.00000000E+00  0.00000000E+00  0.00000000E+00
  0.00000000E+00  0.00000000E+00  0.00000000E+00
  0.00000000E+00  0.00000000E+00  0.00000000E+00
  0.00000000E+00  0.00000000E+00  0.00000000E+00
  0.00000000E+00  0.00000000E+00  0.00000000E+00
