generated by pypospack                  
   4.98831000000000     
     1.3924037324803189    0.0008005461079305   -0.0005288613590587
     0.0011303511720327    2.0653362542512470    0.0021294783616299
    -0.0006502656166054    0.0020228960499590    2.0447114586224253
   Ta   Nb   Hf   Zr
     8     9     9    10
Direct
  0.7345940208347509  0.5052764711308773  0.1726882108067767
  0.5101234599433087  0.6683841948511198  0.9895889270535694
  0.2643082110208094  0.1793152701660961  0.1718085647612357
  0.0283790076834085  0.0039670808934401  0.3223886834970929
  0.0241685223694265  0.9776407949614748  0.6799195398753214
  0.7508961791029494  0.4936616333674128  0.4914783981960033
  0.4981166013062791  0.3426872399889890  0.6544158693397546
  0.5122395308846789  0.6674838461677141  0.3496161530095203
  0.5050211901958844  0.3342209791516256  0.3362268037420528
  0.2635977988400381  0.4914712455946485  0.8317539400855699
  0.9916223342314210  0.3351551320271735  0.3156429702221539
  0.9980782519095426  0.3574023432756479  0.6680918951207712
  0.9849076449897642  0.6613570660972194  0.3396495485453043
  0.2242462675678263  0.8282063002050631  0.4918484997903953
  0.2551674745784077  0.8267453917191165  0.8467166847588767
  0.4934469447816602  0.3355286297790859  0.0049791740296021
  0.7508134560587362  0.8361958461662128  0.8278388078754000
  0.0034137395727150  0.3380009750605624  0.0111883562483704
  0.9917820088470810  0.6596727725526144  0.9876913731204049
  0.2535656498465805  0.8151872194867696  0.1685068460487637
  0.7658768581893578  0.1704190651439973  0.5023275625470037
  0.4810274372116653  0.9892390730025926  0.6681530244403754
  0.7529698049709813  0.8234554714794229  0.1764637780647899
  0.7728728475742850  0.8464118348037701  0.4941879325109238
  0.2417503089808944  0.4954970221647479  0.4887136224914523
  0.0023926432776789  0.6658176024963056  0.6718710256235325
  0.2492179896987530  0.1794346926809294  0.8263757127354002
  0.7546770680084742  0.1706091288901501  0.8197649645717320
  0.0056117155867029  0.0009494592340820  0.0024517225753153
  0.2289336665906176  0.1774394517529938  0.5038546626279680
  0.2629337395156139  0.5057925945767461  0.1732045131745643
  0.5029592888040076  0.9952914516864929  0.9945477957933806
  0.7378328596585728  0.1691520937605158  0.1774388895429101
  0.4748145856367381  0.9982383478539444  0.3421339303154409
  0.7321232211607839  0.4859733861599038  0.8337823557351852
  0.4955256705695921  0.6687248916705351  0.6626902611230985
 
  0.00000000E+00  0.00000000E+00  0.00000000E+00
  0.00000000E+00  0.00000000E+00  0.00000000E+00
  0.00000000E+00  0.00000000E+00  0.00000000E+00
  0.00000000E+00  0.00000000E+00  0.00000000E+00
  0.00000000E+00  0.00000000E+00  0.00000000E+00
  0.00000000E+00  0.00000000E+00  0.00000000E+00
  0.00000000E+00  0.00000000E+00  0.00000000E+00
  0.00000000E+00  0.00000000E+00  0.00000000E+00
  0.00000000E+00  0.00000000E+00  0.00000000E+00
  0.00000000E+00  0.00000000E+00  0.00000000E+00
  0.00000000E+00  0.00000000E+00  0.00000000E+00
  0.00000000E+00  0.00000000E+00  0.00000000E+00
  0.00000000E+00  0.00000000E+00  0.00000000E+00
  0.00000000E+00  0.00000000E+00  0.00000000E+00
  0.00000000E+00  0.00000000E+00  0.00000000E+00
  0.00000000E+00  0.00000000E+00  0.00000000E+00
  0.00000000E+00  0.00000000E+00  0.00000000E+00
  0.00000000E+00  0.00000000E+00  0.00000000E+00
  0.00000000E+00  0.00000000E+00  0.00000000E+00
  0.00000000E+00  0.00000000E+00  0.00000000E+00
  0.00000000E+00  0.00000000E+00  0.00000000E+00
  0.00000000E+00  0.00000000E+00  0.00000000E+00
  0.00000000E+00  0.00000000E+00  0.00000000E+00
  0.00000000E+00  0.00000000E+00  0.00000000E+00
  0.00000000E+00  0.00000000E+00  0.00000000E+00
  0.00000000E+00  0.00000000E+00  0.00000000E+00
  0.00000000E+00  0.00000000E+00  0.00000000E+00
  0.00000000E+00  0.00000000E+00  0.00000000E+00
  0.00000000E+00  0.00000000E+00  0.00000000E+00
  0.00000000E+00  0.00000000E+00  0.00000000E+00
  0.00000000E+00  0.00000000E+00  0.00000000E+00
  0.00000000E+00  0.00000000E+00  0.00000000E+00
  0.00000000E+00  0.00000000E+00  0.00000000E+00
  0.00000000E+00  0.00000000E+00  0.00000000E+00
  0.00000000E+00  0.00000000E+00  0.00000000E+00
  0.00000000E+00  0.00000000E+00  0.00000000E+00
