generated by pypospack
   4.98831
  1.376436   0.001062  -0.000059
  0.001635   2.060867   0.005956
 -0.000039   0.005852   2.062153
 Hf Zr Nb Ta
 10 8 8 10
Direct
  0.256558   0.168549   0.821158
  0.244943   0.499800   0.166060
  0.232125   0.815459   0.143742
  0.010220   0.677081   0.352484
  0.509492   0.008793   0.010431
  0.745961   0.167978   0.506728
  0.508747   0.325468   0.002015
  0.742470   0.487768   0.498932
  0.495331   0.684436   0.346049
  0.489037   0.665847   0.663001
  0.985023   0.011928   0.006247
  0.999228   0.998903   0.330070
  0.987776   0.324832   0.998596
  0.014004   0.663770   0.659608
  0.501418   0.997788   0.326729
  0.753402   0.506144   0.174522
  0.500375   0.657166   0.979203
  0.755293   0.834516   0.828195
  0.003984   0.000375   0.669686
  0.261424   0.483299   0.496313
  0.996488   0.655751   0.980382
  0.752135   0.182773   0.193479
  0.498410   0.995890   0.669265
  0.741704   0.167205   0.813141
  0.493723   0.340210   0.668617
  0.766259   0.811739   0.154608
  0.245837   0.182725   0.180405
  0.253488   0.165308   0.506350
  0.016361   0.327302   0.340848
  0.006321   0.337512   0.665728
  0.239143   0.482789   0.829726
  0.251106   0.860856   0.514856
  0.483241   0.324991   0.332728
  0.761233   0.492398   0.816715
  0.752269   0.850883   0.519280
  0.245468   0.841771   0.834099
