generated by pypospack                  
   4.98831000000000     
     1.4069221648943997    0.0063863684729626    0.0048597535405050
     0.0094241174154586    2.0641073236317617    0.0037670772427501
     0.0068863065795528    0.0037422201471535    2.0703546236734440
   Zr   Hf   Ta   Nb
    12    10     9     5
Direct
  0.7091447567370230  0.1626181497224371  0.8372283979087450
  0.5179807729105971  0.3458914933374461  0.3391387924362676
 -0.0026314442414192  0.3153015041115856  0.6688112857948025
  0.2472462229428540  0.4863047240406640  0.1535055822124800
  0.9752106388786579  0.3321255430277802  0.3300757425593853
  0.4967065288726065  0.6637113238675514  0.3321116747130160
  0.2550727105765208  0.1606428541066053  0.4810734117522366
  0.7865966342812151  0.5225083654094631  0.5206022368183369
  0.7591897736205945  0.8379029250150695  0.5012519288758298
  0.2526957828442421  0.4923499500717408  0.8412395892902759
  0.2637275456569584  0.1626264768939156  0.1660440968855015
  0.7600134109090523  0.8187596867390607  0.8276918704513091
  0.4954517247783863  0.6753971778536615  0.0096414537007129
  0.4753702975716942  0.9910683308738507  0.6628399976570333
  0.2806581290959574  0.1743229306437034  0.8503777888256683
  0.9928532461361066  0.9994101552183323  0.0016471385044178
  0.0103683363477505  0.0060011871549790  0.6724698816646405
  0.0068683452572978  0.6721352974426812  0.3188599347892916
  0.5037262130165296  0.3394602764292458  0.6454322342245381
  0.9706980253407804  0.3148862340801267  0.0026030405866624
  0.7624235490477854  0.5107716409199204  0.8352971859621040
  0.4670591585166023  0.6697330517655052  0.6604911341509158
  0.0096393770156949  0.6806819495240536  0.0129210453254335
  0.7459065556756995  0.8395259106283154  0.1695350584326688
  0.9895439889927106  0.9974116057982384  0.3241143874570262
  0.2531794364209624  0.8471408538334939  0.1712615537819049
  0.7394309374027018  0.1457195872788265  0.4885252695864442
  0.2216532383783893  0.5016267560116356  0.5036787268266824
  0.0457960270413058  0.6801890518702345  0.6687695867421179
  0.7602580936818267  0.5085992921223941  0.1513278868704443
  0.2368752708662560  0.8425974750084455  0.4847916044127642
  0.5053566958413025  0.9931740350112216  0.3310473975292939
  0.7296723318840792  0.1526877166629282  0.1730083566952118
  0.2416921935832720  0.8334318267399691  0.8442257576072115
  0.5349438623956085  0.3408040119197507  0.0129321417642858
  0.4996056317223826  0.9824836488651605  0.0054198272043508
 
  0.00000000E+00  0.00000000E+00  0.00000000E+00
  0.00000000E+00  0.00000000E+00  0.00000000E+00
  0.00000000E+00  0.00000000E+00  0.00000000E+00
  0.00000000E+00  0.00000000E+00  0.00000000E+00
  0.00000000E+00  0.00000000E+00  0.00000000E+00
  0.00000000E+00  0.00000000E+00  0.00000000E+00
  0.00000000E+00  0.00000000E+00  0.00000000E+00
  0.00000000E+00  0.00000000E+00  0.00000000E+00
  0.00000000E+00  0.00000000E+00  0.00000000E+00
  0.00000000E+00  0.00000000E+00  0.00000000E+00
  0.00000000E+00  0.00000000E+00  0.00000000E+00
  0.00000000E+00  0.00000000E+00  0.00000000E+00
  0.00000000E+00  0.00000000E+00  0.00000000E+00
  0.00000000E+00  0.00000000E+00  0.00000000E+00
  0.00000000E+00  0.00000000E+00  0.00000000E+00
  0.00000000E+00  0.00000000E+00  0.00000000E+00
  0.00000000E+00  0.00000000E+00  0.00000000E+00
  0.00000000E+00  0.00000000E+00  0.00000000E+00
  0.00000000E+00  0.00000000E+00  0.00000000E+00
  0.00000000E+00  0.00000000E+00  0.00000000E+00
  0.00000000E+00  0.00000000E+00  0.00000000E+00
  0.00000000E+00  0.00000000E+00  0.00000000E+00
  0.00000000E+00  0.00000000E+00  0.00000000E+00
  0.00000000E+00  0.00000000E+00  0.00000000E+00
  0.00000000E+00  0.00000000E+00  0.00000000E+00
  0.00000000E+00  0.00000000E+00  0.00000000E+00
  0.00000000E+00  0.00000000E+00  0.00000000E+00
  0.00000000E+00  0.00000000E+00  0.00000000E+00
  0.00000000E+00  0.00000000E+00  0.00000000E+00
  0.00000000E+00  0.00000000E+00  0.00000000E+00
  0.00000000E+00  0.00000000E+00  0.00000000E+00
  0.00000000E+00  0.00000000E+00  0.00000000E+00
  0.00000000E+00  0.00000000E+00  0.00000000E+00
  0.00000000E+00  0.00000000E+00  0.00000000E+00
  0.00000000E+00  0.00000000E+00  0.00000000E+00
  0.00000000E+00  0.00000000E+00  0.00000000E+00
