generated by pypospack                  
   4.98831000000000     
     1.3888591693664145    0.0016634516297336    0.0028995192708222
     0.0024698318551046    2.0541534043606147    0.0007955090626264
     0.0043835987816345    0.0007281544380479    2.0384168612724056
   Ta   Hf   Nb   Zr
     9     8    10     9
Direct
  0.5123905302771576  0.6731990672843529  0.9882210902226435
  0.2635876958512136  0.1817546814429566  0.1727695277627469
  0.0300885861734497  0.0028938257860835  0.3237527628583362
  0.0231990812440298  0.9912839794749951  0.6791848879862739
  0.2538653700506816  0.1760301808086298  0.8269337390158695
  0.5141707402427114  0.3454088035690852  0.3407885610041498
  0.7623720061562370  0.4969031212160209  0.5001351699806145
  0.4867123348266481  0.3326418894002447  0.6617608992951716
  0.5172865221895292  0.6564431460751302  0.3478739364404101
  0.0091193971305382  0.3361192458115083  0.0037918050754682
  0.9895393427724162  0.6596542801715100  0.9909954331310797
  0.2579506354917601  0.8113718904170556  0.1722502333519545
  0.7678073976500588  0.1716676635807049  0.5028511559448451
  0.4832791291573760  0.9959571095694816  0.6652568905288450
  0.7484472085092215  0.8327303653287805  0.1757503964979283
  0.7751701940731790  0.8394587391453150  0.4967892570467631
  0.2296766108518728  0.4988337896625836  0.4968914573394024
  0.2600226344889873  0.4937975512385829  0.8304171348005324
  0.9834985398054825  0.3382027953860477  0.3155245387297256
  0.0119760927931924  0.3389218390877006  0.6815125175126896
  0.9810093673607043  0.6593618568946181  0.3333138625753291
  0.2202857546900291  0.8270451040767828  0.4972838955337138
  0.2452157811246000  0.8260219721230616  0.8329692011338714
  0.4856732110519418  0.3313262581360105  0.9993682845950400
  0.7386629216610809  0.5034183516074504  0.1718688530266269
  0.7593077999559890  0.8322030678983018  0.8228333637690188
  0.0062311200284123  0.6723190414463932  0.6755823052892910
  0.7474823998189541  0.1697777764342737  0.8271848787650750
  0.0167349107203113  0.0005141929238043  0.9986203938515906
  0.2279141231681290  0.1787070525527494  0.5018627941821734
  0.2611607989267901  0.5042810948648743  0.1708456771927011
  0.4863052031508679  0.9929299172334887  0.9906248801334403
  0.7392294205759016  0.1634580025825685  0.1712125014392679
  0.4742742496508776  0.9990879690722823  0.3463892094559191
  0.7381465760458872  0.4928503913620168  0.8257786195091539
  0.4922153123337789  0.6734259863345483  0.6608038850223530
 
  0.00000000E+00  0.00000000E+00  0.00000000E+00
  0.00000000E+00  0.00000000E+00  0.00000000E+00
  0.00000000E+00  0.00000000E+00  0.00000000E+00
  0.00000000E+00  0.00000000E+00  0.00000000E+00
  0.00000000E+00  0.00000000E+00  0.00000000E+00
  0.00000000E+00  0.00000000E+00  0.00000000E+00
  0.00000000E+00  0.00000000E+00  0.00000000E+00
  0.00000000E+00  0.00000000E+00  0.00000000E+00
  0.00000000E+00  0.00000000E+00  0.00000000E+00
  0.00000000E+00  0.00000000E+00  0.00000000E+00
  0.00000000E+00  0.00000000E+00  0.00000000E+00
  0.00000000E+00  0.00000000E+00  0.00000000E+00
  0.00000000E+00  0.00000000E+00  0.00000000E+00
  0.00000000E+00  0.00000000E+00  0.00000000E+00
  0.00000000E+00  0.00000000E+00  0.00000000E+00
  0.00000000E+00  0.00000000E+00  0.00000000E+00
  0.00000000E+00  0.00000000E+00  0.00000000E+00
  0.00000000E+00  0.00000000E+00  0.00000000E+00
  0.00000000E+00  0.00000000E+00  0.00000000E+00
  0.00000000E+00  0.00000000E+00  0.00000000E+00
  0.00000000E+00  0.00000000E+00  0.00000000E+00
  0.00000000E+00  0.00000000E+00  0.00000000E+00
  0.00000000E+00  0.00000000E+00  0.00000000E+00
  0.00000000E+00  0.00000000E+00  0.00000000E+00
  0.00000000E+00  0.00000000E+00  0.00000000E+00
  0.00000000E+00  0.00000000E+00  0.00000000E+00
  0.00000000E+00  0.00000000E+00  0.00000000E+00
  0.00000000E+00  0.00000000E+00  0.00000000E+00
  0.00000000E+00  0.00000000E+00  0.00000000E+00
  0.00000000E+00  0.00000000E+00  0.00000000E+00
  0.00000000E+00  0.00000000E+00  0.00000000E+00
  0.00000000E+00  0.00000000E+00  0.00000000E+00
  0.00000000E+00  0.00000000E+00  0.00000000E+00
  0.00000000E+00  0.00000000E+00  0.00000000E+00
  0.00000000E+00  0.00000000E+00  0.00000000E+00
  0.00000000E+00  0.00000000E+00  0.00000000E+00
