generated by pypospack                  
   4.98831000000000     
     1.4019551001305071   -0.0022936168682877   -0.0024194171473139
    -0.0033300065044009    2.0565852969389673    0.0074091168303538
    -0.0034454366747338    0.0072778738896227    2.0514809093988298
   Ta   Zr   Nb   Hf
    11     8     5    12
Direct
  0.2365120610137436  0.1681666240762949  0.5047435482489234
  0.0374917715847507  0.3325658268960170  0.3398725337377270
  0.2732856725516049  0.4988178234982545  0.8326654493240586
  0.2511754038811866  0.8262281345501931  0.1515677704810899
  0.4872663246794378  0.3259222779483382  0.6693881224665235
  0.4825596570925043  0.3245410667515172  0.9948640857857339
  0.2743436067736826  0.5053478530076629  0.5030960629800709
  0.4926721522719829  0.6690027252058383  0.3157047280660474
  0.5043002834419443 -0.0008287678052371  0.0001253208423063
  0.4950832409090233  0.6549933132611921  0.6783145233559820
  0.7447092752981299  0.8224847757510428  0.8269951043094879
  0.7358425825367563  0.4958423821270238  0.4914598340203368
  0.9895182776344765  0.0000284766853782  0.0005755492687464
  0.0188335064042121  0.3227700562096470  0.9866758928894875
  0.0108618603315231  0.6574391098336999  0.6644398330782781
  0.4844701927229844  0.0002906954117718  0.3214376170976282
  0.9893401007708448  0.0060315719785008  0.6740568066922066
  0.2806167778285922  0.8272217087913870  0.5084762642008684
  0.0137640769632357  0.3368995712053633  0.6687783974695857
  0.2517129151790870  0.1657726517196856  0.1595524562995934
  0.9785298506733507  0.6782141218442415  0.0027452259382564
  0.7323198809006615  0.1800294348319351  0.8416249286166385
  0.7454654090666428  0.8347429776424494  0.1676560039254171
  0.2673994902601515  0.1628285097524365  0.8350656528884713
  0.7610927707627193  0.4920773836254335  0.1712007695515386
  0.2499433770335443  0.8288507052708585  0.8423213563709866
  0.7258390468551533  0.8280821647039788  0.5077467479160291
  0.7365465570143789  0.4949215778512904  0.8376914787043100
  0.2305353684389873  0.5091703261521638  0.1580956695696081
  0.0083747052262132  0.6805264383938768  0.3368565757652953
  0.7613668865626184  0.1768149891510433  0.4864411044801505
  0.4606225259458224  0.3322132853789969  0.3322181780398968
  0.0130343419647987  0.9945919754800483  0.3290704654023222
  0.7482817268354347  0.1799281702692571  0.1719479144853241
  0.5163305118354127  0.6717755699903821  0.0077935230173093
  0.5099518107544075  0.0157014925580266  0.6787295047137473
 
  0.00000000E+00  0.00000000E+00  0.00000000E+00
  0.00000000E+00  0.00000000E+00  0.00000000E+00
  0.00000000E+00  0.00000000E+00  0.00000000E+00
  0.00000000E+00  0.00000000E+00  0.00000000E+00
  0.00000000E+00  0.00000000E+00  0.00000000E+00
  0.00000000E+00  0.00000000E+00  0.00000000E+00
  0.00000000E+00  0.00000000E+00  0.00000000E+00
  0.00000000E+00  0.00000000E+00  0.00000000E+00
  0.00000000E+00  0.00000000E+00  0.00000000E+00
  0.00000000E+00  0.00000000E+00  0.00000000E+00
  0.00000000E+00  0.00000000E+00  0.00000000E+00
  0.00000000E+00  0.00000000E+00  0.00000000E+00
  0.00000000E+00  0.00000000E+00  0.00000000E+00
  0.00000000E+00  0.00000000E+00  0.00000000E+00
  0.00000000E+00  0.00000000E+00  0.00000000E+00
  0.00000000E+00  0.00000000E+00  0.00000000E+00
  0.00000000E+00  0.00000000E+00  0.00000000E+00
  0.00000000E+00  0.00000000E+00  0.00000000E+00
  0.00000000E+00  0.00000000E+00  0.00000000E+00
  0.00000000E+00  0.00000000E+00  0.00000000E+00
  0.00000000E+00  0.00000000E+00  0.00000000E+00
  0.00000000E+00  0.00000000E+00  0.00000000E+00
  0.00000000E+00  0.00000000E+00  0.00000000E+00
  0.00000000E+00  0.00000000E+00  0.00000000E+00
  0.00000000E+00  0.00000000E+00  0.00000000E+00
  0.00000000E+00  0.00000000E+00  0.00000000E+00
  0.00000000E+00  0.00000000E+00  0.00000000E+00
  0.00000000E+00  0.00000000E+00  0.00000000E+00
  0.00000000E+00  0.00000000E+00  0.00000000E+00
  0.00000000E+00  0.00000000E+00  0.00000000E+00
  0.00000000E+00  0.00000000E+00  0.00000000E+00
  0.00000000E+00  0.00000000E+00  0.00000000E+00
  0.00000000E+00  0.00000000E+00  0.00000000E+00
  0.00000000E+00  0.00000000E+00  0.00000000E+00
  0.00000000E+00  0.00000000E+00  0.00000000E+00
  0.00000000E+00  0.00000000E+00  0.00000000E+00
