generated by pypospack
   4.98831
  1.394072  -0.003436  -0.002197
 -0.004983   2.058149   0.005115
 -0.003116   0.005014   2.047758
 Ta Zr Nb Hf
 11 8 5 12
Direct
  0.231542   0.174833   0.508906
  0.037167   0.331772   0.340269
  0.259490   0.495259   0.829420
  0.252085   0.826528   0.150753
  0.486576   0.328413   0.667334
  0.485172   0.325089   0.993493
  0.261818   0.500560   0.507096
  0.493920   0.667004   0.313962
  0.505384  -0.000142   0.998742
  0.492977   0.652729   0.680349
  0.740714   0.823646   0.828644
  0.743054   0.496067   0.494578
  0.988976   0.000366   0.000761
  0.017140   0.318543   0.988262
  0.009452   0.659475   0.663080
  0.484812   0.000146   0.323249
  0.992445   0.006988   0.673066
  0.286971   0.824342   0.507189
  0.016978   0.337475   0.668853
  0.257870   0.164200   0.159147
  0.976549   0.678679   0.002322
  0.739295   0.183628   0.833561
  0.745137   0.835130   0.166294
  0.260790   0.169307   0.831002
  0.762326   0.491437   0.172090
  0.251695   0.828364   0.844607
  0.724311   0.827705   0.507904
  0.747269   0.491639   0.833268
  0.228614   0.507617   0.157650
  0.009249   0.682807   0.336964
  0.765886   0.179227   0.492203
  0.462638   0.334209   0.333682
  0.013955   0.995110   0.330934
  0.746040   0.179269   0.174587
  0.515847   0.666791   0.006419
  0.505850   0.015795   0.679355
