generated by pypospack
   4.94975
  3.000000   0.000000   0.000000
  0.000000   3.000000   0.000000
  0.000000   0.000000   3.000000
 Ag Pt
 54 54
Direct
  0.000000   0.166667   0.166667
  0.000000   0.000000   0.333333
  0.000000   0.000000   0.666667
  0.166667   0.166667   0.666667
  0.166667   0.000000   0.833333
  0.000000   0.333333   0.333333
  0.166667   0.500000   0.333333
  0.000000   0.333333   0.666667
  0.166667   0.333333   0.833333
  0.000000   0.666667   0.000000
  0.166667   0.666667   0.166667
  0.000000   0.666667   0.333333
  0.166667   0.833333   0.333333
  0.166667   0.666667   0.500000
  0.000000   0.666667   0.666667
  0.166667   0.833333   0.666667
  0.166667   0.666667   0.833333
  0.000000   0.833333   0.833333
  0.333333   0.000000   0.000000
  0.333333   0.166667   0.166667
  0.333333   0.000000   0.333333
  0.500000   0.166667   0.333333
  0.333333   0.166667   0.500000
  0.333333   0.000000   0.666667
  0.500000   0.166667   0.666667
  0.333333   0.500000   0.166667
  0.500000   0.500000   0.333333
  0.500000   0.333333   0.500000
  0.333333   0.500000   0.500000
  0.333333   0.333333   0.666667
  0.500000   0.500000   0.666667
  0.500000   0.833333   0.000000
  0.500000   0.666667   0.166667
  0.333333   0.833333   0.166667
  0.500000   0.833333   0.333333
  0.500000   0.666667   0.500000
  0.333333   0.833333   0.500000
  0.333333   0.666667   0.666667
  0.500000   0.666667   0.833333
  0.666667   0.000000   0.000000
  0.833333   0.000000   0.166667
  0.666667   0.000000   0.333333
  0.833333   0.166667   0.333333
  0.666667   0.166667   0.500000
  0.666667   0.000000   0.666667
  0.833333   0.000000   0.833333
  0.833333   0.333333   0.166667
  0.666667   0.500000   0.166667
  0.666667   0.333333   0.333333
  0.833333   0.500000   0.333333
  0.833333   0.500000   0.666667
  0.833333   0.333333   0.833333
  0.666667   0.833333   0.166667
  0.666667   0.666667   0.666667
  0.000000   0.000000   0.000000
  0.166667   0.166667   0.000000
  0.166667   0.000000   0.166667
  0.166667   0.166667   0.333333
  0.166667   0.000000   0.500000
  0.000000   0.166667   0.500000
  0.000000   0.166667   0.833333
  0.000000   0.333333   0.000000
  0.166667   0.500000   0.000000
  0.166667   0.333333   0.166667
  0.000000   0.500000   0.166667
  0.166667   0.333333   0.500000
  0.000000   0.500000   0.500000
  0.166667   0.500000   0.666667
  0.000000   0.500000   0.833333
  0.166667   0.833333   0.000000
  0.000000   0.833333   0.166667
  0.000000   0.833333   0.500000
  0.500000   0.166667   0.000000
  0.500000   0.000000   0.166667
  0.500000   0.000000   0.500000
  0.500000   0.000000   0.833333
  0.333333   0.166667   0.833333
  0.333333   0.333333   0.000000
  0.500000   0.500000   0.000000
  0.500000   0.333333   0.166667
  0.333333   0.333333   0.333333
  0.500000   0.333333   0.833333
  0.333333   0.500000   0.833333
  0.333333   0.666667   0.000000
  0.333333   0.666667   0.333333
  0.500000   0.833333   0.666667
  0.333333   0.833333   0.833333
  0.833333   0.166667   0.000000
  0.666667   0.166667   0.166667
  0.833333   0.000000   0.500000
  0.833333   0.166667   0.666667
  0.666667   0.166667   0.833333
  0.666667   0.333333   0.000000
  0.833333   0.500000   0.000000
  0.833333   0.333333   0.500000
  0.666667   0.500000   0.500000
  0.666667   0.333333   0.666667
  0.666667   0.500000   0.833333
  0.666667   0.666667   0.000000
  0.833333   0.833333   0.000000
  0.833333   0.666667   0.166667
  0.666667   0.666667   0.333333
  0.833333   0.833333   0.333333
  0.833333   0.666667   0.500000
  0.666667   0.833333   0.500000
  0.833333   0.833333   0.666667
  0.833333   0.666667   0.833333
  0.666667   0.833333   0.833333
