generated by pypospack                  
   4.98831000000000     
     1.3998303580823628    0.0037972751481452   -0.0014749693565909
     0.0055715101355020    2.0490542116024120    0.0035474252482121
    -0.0021759403841953    0.0034081864085515    2.0540334890048308
   Nb   Zr   Ta   Hf
    10    10     7     9
Direct
  0.0053111005328761  0.9904200432150990  0.3322688619143229
  0.4906538182373341  0.9900947609236591  0.3462550774845827
  0.7406678893609913  0.8315409104929661  0.1858402595127853
  0.2340559333152974  0.1692718077131887  0.4902789312921228
  0.5053550230328143  0.3385511560608114  0.3485347922701583
  0.2650169309878775  0.4993063872540517  0.8475860277609965
  0.9849429447654513  0.3407208057183009  0.3236023207757716
  0.0179597922888383  0.3392245660021244  0.6691765622023023
  0.2425980444391350  0.8340620125737656  0.4841657928991057
  0.4801061183712086  0.3355393187974798  0.9887164201460655
  0.2592475411866977  0.1679656683587069  0.1767660816707514
  0.9838622432673280  0.0057191584767949  0.0103385303092083
  0.7629045413906763  0.1634291204218226  0.5011586845203040
  0.7648469964331461  0.1714859847003691  0.8204700811426673
  0.5178725500156515  0.9977413150003034  0.9958871126469594
  0.7254798616567381  0.1778172229904005  0.1777307558759874
  0.7401389283032914  0.4918336829721071  0.8291999279224889
  0.4875626684987594  0.6628406063203719  0.6531699867615351
  0.4823996681707403  0.3315453603038002  0.6599314063029451
  0.7652496075794448  0.8369519425943198  0.8132505883272139
  0.2349346846024251  0.1714731451063662  0.8330763558956846
  0.7292276448860255  0.4969208195268084  0.1761500231162266
  0.5311396198675664  0.6677406327741642  0.0105934780576339
  0.0430142098010064  0.0048777135765872  0.6615973384460562
  0.5167685609737627  0.6694987906180080  0.3389200689276661
  0.7644404264155269  0.4982941469116706  0.4891970950677870
  0.9818331796926413  0.6687559778315262  0.3260391008745485
  0.2642805129426520  0.5052886191377329  0.1706820232088657
  0.0045931907938565  0.3372283263740160  0.0038775479030069
  0.9707022808220134  0.6617137811582594  0.0108500212768216
  0.2583919716257903  0.8262042105013219  0.1689495281230560
  0.4680423591308610  0.0031669104948460  0.6611730266508896
  0.7638713591298961  0.8388498102992514  0.5037111875389196
  0.2349433452866453  0.4958165807890475  0.4745870214835075
  0.0268645210336470  0.6528229898903269  0.6649408079172408
  0.2507229311613937  0.8252877141196187  0.8513221737738288
 
  0.00000000E+00  0.00000000E+00  0.00000000E+00
  0.00000000E+00  0.00000000E+00  0.00000000E+00
  0.00000000E+00  0.00000000E+00  0.00000000E+00
  0.00000000E+00  0.00000000E+00  0.00000000E+00
  0.00000000E+00  0.00000000E+00  0.00000000E+00
  0.00000000E+00  0.00000000E+00  0.00000000E+00
  0.00000000E+00  0.00000000E+00  0.00000000E+00
  0.00000000E+00  0.00000000E+00  0.00000000E+00
  0.00000000E+00  0.00000000E+00  0.00000000E+00
  0.00000000E+00  0.00000000E+00  0.00000000E+00
  0.00000000E+00  0.00000000E+00  0.00000000E+00
  0.00000000E+00  0.00000000E+00  0.00000000E+00
  0.00000000E+00  0.00000000E+00  0.00000000E+00
  0.00000000E+00  0.00000000E+00  0.00000000E+00
  0.00000000E+00  0.00000000E+00  0.00000000E+00
  0.00000000E+00  0.00000000E+00  0.00000000E+00
  0.00000000E+00  0.00000000E+00  0.00000000E+00
  0.00000000E+00  0.00000000E+00  0.00000000E+00
  0.00000000E+00  0.00000000E+00  0.00000000E+00
  0.00000000E+00  0.00000000E+00  0.00000000E+00
  0.00000000E+00  0.00000000E+00  0.00000000E+00
  0.00000000E+00  0.00000000E+00  0.00000000E+00
  0.00000000E+00  0.00000000E+00  0.00000000E+00
  0.00000000E+00  0.00000000E+00  0.00000000E+00
  0.00000000E+00  0.00000000E+00  0.00000000E+00
  0.00000000E+00  0.00000000E+00  0.00000000E+00
  0.00000000E+00  0.00000000E+00  0.00000000E+00
  0.00000000E+00  0.00000000E+00  0.00000000E+00
  0.00000000E+00  0.00000000E+00  0.00000000E+00
  0.00000000E+00  0.00000000E+00  0.00000000E+00
  0.00000000E+00  0.00000000E+00  0.00000000E+00
  0.00000000E+00  0.00000000E+00  0.00000000E+00
  0.00000000E+00  0.00000000E+00  0.00000000E+00
  0.00000000E+00  0.00000000E+00  0.00000000E+00
  0.00000000E+00  0.00000000E+00  0.00000000E+00
  0.00000000E+00  0.00000000E+00  0.00000000E+00
