generated by pypospack
   4.98831
  1.399190   0.003673  -0.001833
  0.005384   2.051084   0.004065
 -0.002702   0.003930   2.053164
 Nb Zr Ta Hf
 10 10 7 9
Direct
  0.005596   0.993946   0.332443
  0.491350   0.989735   0.346282
  0.743595   0.830334   0.186844
  0.234563   0.169467   0.490070
  0.505006   0.339285   0.349022
  0.265548   0.499319   0.847937
  0.985016   0.338074   0.323479
  0.018270   0.339292   0.669168
  0.242142   0.834318   0.484238
  0.480705   0.335475   0.989000
  0.260915   0.168260   0.175887
  0.983930   0.005051   0.011166
  0.761650   0.163658   0.501645
  0.764418   0.171159   0.820335
  0.518490   0.997143   0.995913
  0.724921   0.177716   0.177765
  0.738238   0.491441   0.829083
  0.488265   0.662642   0.651401
  0.481237   0.331717   0.659429
  0.765125   0.837525   0.812968
  0.235254   0.171359   0.833359
  0.729841   0.496843   0.176447
  0.531521   0.667879   0.012201
  0.042903   0.004932   0.661242
  0.513955   0.669535   0.339013
  0.765385   0.498509   0.488541
  0.984777   0.669534   0.326188
  0.263364   0.504833   0.170376
  0.003864   0.337736   0.003763
  0.971264   0.660752   0.007955
  0.257479   0.826585   0.169149
  0.467942   0.002899   0.661147
  0.764571   0.838660   0.503106
  0.231495   0.496359   0.474373
  0.025555   0.652706   0.667785
  0.251853   0.825324   0.851275
