generated by pypospack                  
   4.98831000000000     
     1.3945051331519329   -0.0008222904409971    0.0023760832818006
    -0.0006562628976298    1.4166824700557750   -0.0409529757500826
     0.0023009667142695   -0.0408022340612095    1.4066638188364544
   Ta   Hf   Zr   Nb
     3     4     8     1
Direct
  0.9935643339281979  0.0334093146502829  0.4880436842533232
  0.9926983796458048  0.5131943148874546  0.9680011411569516
  0.7574171690699771  0.2242112346916007  0.7710954772179686
  0.2466058626045674  0.2715306876690385  0.2263304017533119
  0.2445818888805879  0.2220850530588895  0.7778390319303908
  0.9951469813018672  0.4639246909811027  0.5372249343644094
  0.5053349701023181  0.0315389194221817  0.4724847698030968
  0.0001316334824864  0.9697763008272363  0.0272720082902961
  0.2420776791951148  0.7333365671381072  0.2656492713483633
  0.2515061684094735  0.7723189886242798  0.7319049949718379
  0.7540415932627335  0.2706414407639074  0.2198135961551762
  0.5088204381681447  0.5166123779022381  0.9671905781360782
  0.7567377285515543  0.7325671119767172  0.2674686484098647
  0.5036131223097895  0.4728995751754723  0.5268363361362447
  0.7482018213054968  0.7826056836062842  0.7302172759993900
  0.4995202297818718  0.9893477386252000  0.0226278500732889
 
  0.00000000E+00  0.00000000E+00  0.00000000E+00
  0.00000000E+00  0.00000000E+00  0.00000000E+00
  0.00000000E+00  0.00000000E+00  0.00000000E+00
  0.00000000E+00  0.00000000E+00  0.00000000E+00
  0.00000000E+00  0.00000000E+00  0.00000000E+00
  0.00000000E+00  0.00000000E+00  0.00000000E+00
  0.00000000E+00  0.00000000E+00  0.00000000E+00
  0.00000000E+00  0.00000000E+00  0.00000000E+00
  0.00000000E+00  0.00000000E+00  0.00000000E+00
  0.00000000E+00  0.00000000E+00  0.00000000E+00
  0.00000000E+00  0.00000000E+00  0.00000000E+00
  0.00000000E+00  0.00000000E+00  0.00000000E+00
  0.00000000E+00  0.00000000E+00  0.00000000E+00
  0.00000000E+00  0.00000000E+00  0.00000000E+00
  0.00000000E+00  0.00000000E+00  0.00000000E+00
  0.00000000E+00  0.00000000E+00  0.00000000E+00
