generated by pypospack                  
   4.98831000000000     
     1.3945051331519329   -0.0008222904409971    0.0023760832818006
    -0.0006562628976298    1.4166824700557750   -0.0409529757500826
     0.0023009667142695   -0.0408022340612095    1.4066638188364544
   Ta   Hf   Zr   Nb
     3     4     8     1
Direct
 -0.0064356490916690  0.0334093050297657  0.4880436790939067
 -0.0073016104707099  0.5131942997933137 -0.0319988400687949
  0.7574171625327599  0.2242112527278010  0.7710954562371435
  0.2466058590766343  0.2715306718110913  0.2263304137772866
  0.2445818841752823  0.2220850776056702  0.7778390139589613
 -0.0048530103543301  0.4639246930474096  0.5372249228695206
  0.5053349553902663  0.0315389205975883  0.4724847884345180
  0.0001316290992539 -0.0302236897405582  0.0272719929575063
  0.2420776701000019  0.7333365634216951  0.2656492843049706
  0.2515061786198519  0.7723189844640627  0.7319049905520887
  0.7540415978072115  0.2706414292425205  0.2198136098890927
  0.5088204328575097  0.5166123800945815 -0.0328093757986248
  0.7567377482006977  0.7325671064806589  0.2674686682408168
  0.5036131050033822  0.4728995757998792  0.5268363086991381
  0.7482018136757861  0.7826056839058922  0.7302172648685009
  0.4995202333780707 -0.0106522542813719  0.0226278219839677
 
  0.00000000E+00  0.00000000E+00  0.00000000E+00
  0.00000000E+00  0.00000000E+00  0.00000000E+00
  0.00000000E+00  0.00000000E+00  0.00000000E+00
  0.00000000E+00  0.00000000E+00  0.00000000E+00
  0.00000000E+00  0.00000000E+00  0.00000000E+00
  0.00000000E+00  0.00000000E+00  0.00000000E+00
  0.00000000E+00  0.00000000E+00  0.00000000E+00
  0.00000000E+00  0.00000000E+00  0.00000000E+00
  0.00000000E+00  0.00000000E+00  0.00000000E+00
  0.00000000E+00  0.00000000E+00  0.00000000E+00
  0.00000000E+00  0.00000000E+00  0.00000000E+00
  0.00000000E+00  0.00000000E+00  0.00000000E+00
  0.00000000E+00  0.00000000E+00  0.00000000E+00
  0.00000000E+00  0.00000000E+00  0.00000000E+00
  0.00000000E+00  0.00000000E+00  0.00000000E+00
  0.00000000E+00  0.00000000E+00  0.00000000E+00
