generated by pypospack                  
   4.98831000000000     
     1.3867867848296140   -0.0000451707824330    0.0024964884693111
    -0.0001144334433096    2.0692316661826928    0.0015519945810582
     0.0037856631169929    0.0014771093062291    2.0385406242984820
   Zr   Hf   Nb   Ta
    10     8    11     7
Direct
  0.2628883820640786  0.1795278355563593  0.8313450307896915
  0.7495515090146651  0.1719193780418053  0.8234438432953823
  0.0094060857734661  0.9988356972296921  0.9993007414047959
  0.2318825819563959  0.1774853122224388  0.5029727872673337
  0.2610017999765933  0.5044639030513037  0.1744411678136091
  0.4966415097660026  0.9857014151432612  0.9904566783139854
  0.7389572619694258  0.1632423437740373  0.1729246683773498
  0.4740312317571505 -0.0035090203668196  0.3451322656567020
  0.7401043612372945  0.4946126715023086  0.8261212186578202
  0.4931925743480907  0.6702275092778202  0.6596977672561167
  0.0015008859996224  0.3389201544030478  0.0088240392531963
  0.9924440474109566  0.6586769314175109  0.9943647878550687
  0.2533603076982918  0.8129295947832039  0.1743581351057087
  0.7686457613769014  0.1707689426856019  0.5030175499529852
  0.4875747466654030  0.9889549402145968  0.6662378631487438
  0.7465942539743842  0.8297628410682886  0.1768303383111780
  0.7771979703954686  0.8396591836962054  0.4970302851454820
  0.2302363744629575  0.5006914291835152  0.4927685237484443
  0.5083308403752536  0.3370051205010007  0.3402411690626630
  0.2560476569684156  0.4969055141861168  0.8286634979900026
  0.9900391175902248  0.3337535935777515  0.3153520293959459
  0.0053478489691190  0.3482595431550354  0.6738266012123147
  0.9761022511061025  0.6576256459703297  0.3309833484469372
  0.2204598097832745  0.8274307456468336  0.4974270184731347
  0.2439379419996021  0.8236946856605716  0.8337041505317105
  0.4975161154676347  0.3409314798962139  0.0070550781935647
  0.7332638546447526  0.5009883365724352  0.1726025234194199
  0.7598194263165419  0.8277977602060618  0.8237381943718658
  0.0041773309882890  0.6710668795674353  0.6757979787945848
  0.5021931422825906  0.6703721956888556  0.9874509017498462
  0.2635225978622571  0.1798008884829677  0.1706721403041753
  0.0284774427983245  0.0060839230038979  0.3238718165070349
  0.0210847266618609  0.9859931850750303  0.6803337761257775
  0.7615533992921092  0.4974695753146560  0.4988568307129984
  0.4985221934332671  0.3464103234185937  0.6484610650805963
  0.5143996576132355  0.6655445411920234  0.3516911882738338
 
  0.00000000E+00  0.00000000E+00  0.00000000E+00
  0.00000000E+00  0.00000000E+00  0.00000000E+00
  0.00000000E+00  0.00000000E+00  0.00000000E+00
  0.00000000E+00  0.00000000E+00  0.00000000E+00
  0.00000000E+00  0.00000000E+00  0.00000000E+00
  0.00000000E+00  0.00000000E+00  0.00000000E+00
  0.00000000E+00  0.00000000E+00  0.00000000E+00
  0.00000000E+00  0.00000000E+00  0.00000000E+00
  0.00000000E+00  0.00000000E+00  0.00000000E+00
  0.00000000E+00  0.00000000E+00  0.00000000E+00
  0.00000000E+00  0.00000000E+00  0.00000000E+00
  0.00000000E+00  0.00000000E+00  0.00000000E+00
  0.00000000E+00  0.00000000E+00  0.00000000E+00
  0.00000000E+00  0.00000000E+00  0.00000000E+00
  0.00000000E+00  0.00000000E+00  0.00000000E+00
  0.00000000E+00  0.00000000E+00  0.00000000E+00
  0.00000000E+00  0.00000000E+00  0.00000000E+00
  0.00000000E+00  0.00000000E+00  0.00000000E+00
  0.00000000E+00  0.00000000E+00  0.00000000E+00
  0.00000000E+00  0.00000000E+00  0.00000000E+00
  0.00000000E+00  0.00000000E+00  0.00000000E+00
  0.00000000E+00  0.00000000E+00  0.00000000E+00
  0.00000000E+00  0.00000000E+00  0.00000000E+00
  0.00000000E+00  0.00000000E+00  0.00000000E+00
  0.00000000E+00  0.00000000E+00  0.00000000E+00
  0.00000000E+00  0.00000000E+00  0.00000000E+00
  0.00000000E+00  0.00000000E+00  0.00000000E+00
  0.00000000E+00  0.00000000E+00  0.00000000E+00
  0.00000000E+00  0.00000000E+00  0.00000000E+00
  0.00000000E+00  0.00000000E+00  0.00000000E+00
  0.00000000E+00  0.00000000E+00  0.00000000E+00
  0.00000000E+00  0.00000000E+00  0.00000000E+00
  0.00000000E+00  0.00000000E+00  0.00000000E+00
  0.00000000E+00  0.00000000E+00  0.00000000E+00
  0.00000000E+00  0.00000000E+00  0.00000000E+00
  0.00000000E+00  0.00000000E+00  0.00000000E+00
