generated by pypospack
   4.98831
  1.388108   0.002797   0.005545
  0.004168   2.055416   0.000928
  0.008209   0.000861   2.046516
 Zr Nb Ta Hf
 6 9 9 12
Direct
  0.753306   0.488630   0.497182
  0.988736   0.998434   0.997979
  0.007828   0.323780   0.979473
  0.002642   0.667044   0.664703
  0.484184   0.998369   0.318636
  0.755220   0.496688   0.167953
  0.511339   0.674881   0.004900
  0.738561   0.820792   0.833929
  0.231551   0.173246   0.165389
  0.990186   0.673241   0.997866
  0.496704   0.010858   0.676449
  0.735562   0.178917   0.817874
  0.756870   0.822327   0.162060
  0.261534   0.166767   0.822564
  0.493840   0.659930   0.665709
  0.249726   0.166215   0.509270
  0.037640   0.333953   0.347178
  0.013721   0.331669   0.670854
  0.266055   0.501696   0.836387
  0.282934   0.840025   0.518245
  0.247020   0.819075   0.145463
  0.483246   0.332204   0.666758
  0.489211   0.316983   0.993648
  0.246873   0.497358   0.514939
  0.262482   0.826598   0.837339
  0.720592   0.841259   0.507472
 -0.000273   0.001389   0.671401
  0.730402   0.498991   0.833945
  0.247473   0.506096   0.146690
  0.018199   0.676990   0.341455
  0.507400   0.005636   0.001537
  0.752280   0.172624   0.499434
  0.484361   0.668827   0.332220
  0.464304   0.335609   0.334132
  0.020221   0.989803   0.334941
  0.768057   0.183107   0.184023
