generated by pypospack                  
   5.17602000000000     
     1.5380313776453769    0.0015984944720945    0.0016024527889385
     0.0015449862998981    1.5832889073399301    0.0114534788330529
     0.0015752253958354    0.0113499158997981    1.5838911981697379
   Pt   Au
    15    17
Direct
  0.2532718948427705  0.2508042604818153 -0.0013756450529409
  0.0008336262868022  0.2451902702826702  0.2526601875260384
 -0.0011302926334842 -0.0000192550619854  0.5046604750784257
  0.2512228857886124 -0.0035694889368329  0.7490715190027886
  0.2510608143011403  0.7504076249903110 -0.0065730372330863
  0.2464706749059989  0.7558194314160158  0.5084081207852814
  0.2470272153000067  0.5040937454433584  0.7554073255226019
  0.0007204368466258  0.7540962985373584  0.7486459799419751
  0.4967488543563162 -0.0033451370690456  0.9907336684396397
  0.5021647489065513 -0.0023995704694616  0.5047937587978961
  0.7530188785153543  0.2412051328385456  0.4981727119562711
  0.7505816182513473 -0.0038399920129965  0.7484282290911947
  0.4960215406453313  0.5026514112574652 -0.0010665111196148
  0.7469095573008815  0.7528514502395866 -0.0060778659715619
  0.7538527373910209  0.7568774699678367  0.5032998586944757
  0.0004328383579346  0.7522174082072062  0.2502367702278072
  0.0021848187354072 -0.0002559441087044 -0.0023907783927328
  0.2523290872656019 -0.0004826567924476  0.2497884675200730
  0.2503218835880654  0.2481957728397820  0.5020479164287198
  0.0011775759279301  0.2482934188173926  0.7503329354151423
  0.0000773836515414  0.5003683152196735  0.0019678338321494
  0.2492830190859553  0.5008847513997569  0.2496030284547139
 -0.0001645201794349  0.5004704481203541  0.5010704259201006
  0.7470519412279123  0.2489917641946428  0.9999172905117434
  0.7480867789804033 -0.0012086389185767  0.2485113180274018
  0.4996880620852065  0.2489281881849498  0.2495214762189526
  0.4993364175736479  0.2500338278040640  0.7493743063173515
  0.7495883989303926  0.5003629307842974  0.2504608360472859
  0.4992581273081816  0.7510756694472028  0.2500522285440569
  0.5005663007551976  0.5017812101700766  0.5018329260281199
  0.7517003125241797  0.5011002423235928  0.7500074062829591
  0.5003043831766119  0.7484226404021106  0.7484768371567625
 
  0.00000000E+00  0.00000000E+00  0.00000000E+00
  0.00000000E+00  0.00000000E+00  0.00000000E+00
  0.00000000E+00  0.00000000E+00  0.00000000E+00
  0.00000000E+00  0.00000000E+00  0.00000000E+00
  0.00000000E+00  0.00000000E+00  0.00000000E+00
  0.00000000E+00  0.00000000E+00  0.00000000E+00
  0.00000000E+00  0.00000000E+00  0.00000000E+00
  0.00000000E+00  0.00000000E+00  0.00000000E+00
  0.00000000E+00  0.00000000E+00  0.00000000E+00
  0.00000000E+00  0.00000000E+00  0.00000000E+00
  0.00000000E+00  0.00000000E+00  0.00000000E+00
  0.00000000E+00  0.00000000E+00  0.00000000E+00
  0.00000000E+00  0.00000000E+00  0.00000000E+00
  0.00000000E+00  0.00000000E+00  0.00000000E+00
  0.00000000E+00  0.00000000E+00  0.00000000E+00
  0.00000000E+00  0.00000000E+00  0.00000000E+00
  0.00000000E+00  0.00000000E+00  0.00000000E+00
  0.00000000E+00  0.00000000E+00  0.00000000E+00
  0.00000000E+00  0.00000000E+00  0.00000000E+00
  0.00000000E+00  0.00000000E+00  0.00000000E+00
  0.00000000E+00  0.00000000E+00  0.00000000E+00
  0.00000000E+00  0.00000000E+00  0.00000000E+00
  0.00000000E+00  0.00000000E+00  0.00000000E+00
  0.00000000E+00  0.00000000E+00  0.00000000E+00
  0.00000000E+00  0.00000000E+00  0.00000000E+00
  0.00000000E+00  0.00000000E+00  0.00000000E+00
  0.00000000E+00  0.00000000E+00  0.00000000E+00
  0.00000000E+00  0.00000000E+00  0.00000000E+00
  0.00000000E+00  0.00000000E+00  0.00000000E+00
  0.00000000E+00  0.00000000E+00  0.00000000E+00
  0.00000000E+00  0.00000000E+00  0.00000000E+00
  0.00000000E+00  0.00000000E+00  0.00000000E+00
