generated by pypospack
   5.17602
  1.558857   0.001995   0.000227
  0.001976   1.586783   0.004323
  0.000221   0.004315   1.579083
 Pt Au
 15 17
Direct
  0.250307   0.251367   0.000872
  0.001372   0.249462   0.250099
  0.002422   0.003217   0.497770
  0.250196   0.002440   0.750190
  0.248306   0.749494   0.003471
  0.250934   0.748126   0.498852
  0.248353   0.499653   0.750196
 -0.001866   0.748235   0.752504
  0.499454   0.000425  -0.002659
  0.499599   0.000360   0.499545
  0.749930   0.250410   0.498591
  0.750394   0.002100   0.751277
  0.501268   0.499689   0.002103
  0.748941   0.748817   0.000786
  0.750875   0.746854   0.496759
 -0.000743   0.750274   0.248595
 -0.002242   0.006157   0.002644
  0.255002   0.002290   0.249817
  0.253595   0.255428   0.500678
 -0.001067   0.253638   0.752294
 -0.006400   0.494619   0.003558
  0.250862   0.498212   0.256112
  0.000118   0.493972   0.499965
  0.749966   0.251835  -0.000528
  0.744370   0.004257   0.241797
  0.498337   0.251925   0.252588
  0.502199   0.256484   0.747038
  0.747723   0.496924   0.250187
  0.499822   0.748475   0.252348
  0.501470   0.498447   0.497347
  0.752251   0.494435   0.749497
  0.504250   0.741982   0.745707
