generated by pypospack                  
   4.98831000000000     
     1.3817640803270586   -0.0002846365544808    0.0059232990227032
    -0.0003616029177260    2.0503204761602918   -0.0069135588270884
     0.0085373117747776   -0.0070963711097859    2.0388497832234713
   Zr   Ta   Nb   Hf
     8     9    11     8
Direct
  0.2583710687566371  0.1699060664505699  0.1783440304874484
  0.0128838489941694  0.0033806072649268  0.0013726976347433
  0.7711624421965302  0.1640020628075101  0.4947569798379061
  0.7488674800555990  0.1646650021233688  0.8306724179316416
  0.7310033766572027  0.1665935448698325  0.1698531603396693
  0.5038192849216756  0.3360282403981769  0.6622288839189554
  0.7500900049581343  0.8338768887941368  0.8244660100523493
  0.2379821896023985  0.4978233078511816  0.4976603847778361
  0.2641824111789595  0.5047944159418162  0.1685241463266613
  0.7450795245887661  0.5019660126042249  0.8291634982569899
  0.7300657634591148  0.4977064331583032  0.1753057588224791
  0.0355225106190159 -0.0003734025211271  0.6682701208139070
  0.5038131246176906  0.6661381848628386  0.3412144015386638
  0.7605414517621439  0.5057490424927831  0.4966968901391747
  0.9953809719986413  0.6665293201794988  0.3248958517836558
  0.5154303305264112  0.6550546840322151  0.6554348025075558
  0.4785987228364482  0.0076648093740999  0.9903263547368715
  0.9919874608695531  0.6593766103541203  0.6639144647098278
  0.5297658368414565  0.6618265210469551  0.0078095920848496
  0.9967763409607765  0.9788990593641986  0.3272223189889741
  0.5004492593035894  0.9856402161690730  0.3456148275915275
  0.7338663714211341  0.8352803414672361  0.1804856293473676
  0.5068740370592466  0.3487474453901244  0.3349382365232217
  0.9888646250707335  0.3519350290596648  0.3138923040601578
  0.9986066465300325  0.3362115229092792  0.6832694065874102
  0.2435458980039023  0.8279021869346934  0.4949108044625486
  0.4939861820677369  0.3356332219682013  0.9958389213261547
  0.2493195823750412  0.1741075203598032  0.8343440964404124
  0.2578534371228954  0.5116171375687720  0.8377378773368563
  0.2319632725862539  0.1699426995952992  0.4847252472260956
  0.9983832509633096  0.3391744618684849  0.0023100935118624
  0.9738629640288444  0.6620968573729564  0.0173847763721795
  0.2672908027645982  0.8282005433979074  0.1658521063517486
  0.4720612690117299  0.0035693362550623  0.6609377989837649
  0.7613678511609970  0.8305479019180041  0.5041309922601452
  0.2603704041286427  0.8177911663158089  0.8354921159283984
 
  0.00000000E+00  0.00000000E+00  0.00000000E+00
  0.00000000E+00  0.00000000E+00  0.00000000E+00
  0.00000000E+00  0.00000000E+00  0.00000000E+00
  0.00000000E+00  0.00000000E+00  0.00000000E+00
  0.00000000E+00  0.00000000E+00  0.00000000E+00
  0.00000000E+00  0.00000000E+00  0.00000000E+00
  0.00000000E+00  0.00000000E+00  0.00000000E+00
  0.00000000E+00  0.00000000E+00  0.00000000E+00
  0.00000000E+00  0.00000000E+00  0.00000000E+00
  0.00000000E+00  0.00000000E+00  0.00000000E+00
  0.00000000E+00  0.00000000E+00  0.00000000E+00
  0.00000000E+00  0.00000000E+00  0.00000000E+00
  0.00000000E+00  0.00000000E+00  0.00000000E+00
  0.00000000E+00  0.00000000E+00  0.00000000E+00
  0.00000000E+00  0.00000000E+00  0.00000000E+00
  0.00000000E+00  0.00000000E+00  0.00000000E+00
  0.00000000E+00  0.00000000E+00  0.00000000E+00
  0.00000000E+00  0.00000000E+00  0.00000000E+00
  0.00000000E+00  0.00000000E+00  0.00000000E+00
  0.00000000E+00  0.00000000E+00  0.00000000E+00
  0.00000000E+00  0.00000000E+00  0.00000000E+00
  0.00000000E+00  0.00000000E+00  0.00000000E+00
  0.00000000E+00  0.00000000E+00  0.00000000E+00
  0.00000000E+00  0.00000000E+00  0.00000000E+00
  0.00000000E+00  0.00000000E+00  0.00000000E+00
  0.00000000E+00  0.00000000E+00  0.00000000E+00
  0.00000000E+00  0.00000000E+00  0.00000000E+00
  0.00000000E+00  0.00000000E+00  0.00000000E+00
  0.00000000E+00  0.00000000E+00  0.00000000E+00
  0.00000000E+00  0.00000000E+00  0.00000000E+00
  0.00000000E+00  0.00000000E+00  0.00000000E+00
  0.00000000E+00  0.00000000E+00  0.00000000E+00
  0.00000000E+00  0.00000000E+00  0.00000000E+00
  0.00000000E+00  0.00000000E+00  0.00000000E+00
  0.00000000E+00  0.00000000E+00  0.00000000E+00
  0.00000000E+00  0.00000000E+00  0.00000000E+00
