generated by pypospack                  
   4.98831000000000     
     1.3739902952766361   -0.0002308133387702   -0.0006915069211247
    -0.0002356534839784    2.0329870403194925   -0.0007950322415175
    -0.0010058605633005   -0.0008410410845742    2.0460599986563688
   Ta   Zr   Nb   Hf
    14     7     8     7
Direct
  0.2368723310153784  0.8413294733265660  0.5004777125897150
  0.7630206737004888  0.8420132658459272  0.4981818210129702
  0.2397050402437251  0.4962967524658097  0.1743314716427942
  0.9926731581587923  0.6692493546009377  0.0061023388611276
  0.2278946283337793  0.8370714125237149  0.1724730603177187
  0.7605591571295596  0.4954686097649886  0.4957353659728454
  0.7707123057504873  0.8354825735924309  0.1740155546191670
  0.9988575415337858  0.9922942711859316  0.0057649839030980
  0.7652389215434917  0.5133469470160240  0.8305349212151080
  0.0011789448514803  0.6683655465417306  0.3345580403712439
  0.2599347975199834  0.1582242445873892  0.4947661522363423
  0.2390366753477403  0.1433168729458559  0.8234586791426443
  0.4989412699931927  0.9909285573843690  0.6607914190386650
  0.4827889026132499  0.3478420981437232  0.3527667108667636
  0.7512606840512248  0.1677527235689932  0.1748782913154535
  0.2399614984414137  0.8328248625109368  0.8269981134497205
  0.7554854259607040  0.4891337685089142  0.1737787700057811
  0.4973259473905193  0.6681550349214570  0.3364408628508181
  0.0194004585008191  0.3349201796380245  0.9858430175152505
  0.5020854026313253  0.6698786237814784  0.0023535403221758
  0.4833181049154085  0.3383239410710825  0.9825946072038104
  0.7575299529373299  0.8346270112429766  0.8271295827875885
  0.2383154093882605  0.5047587208546686  0.4961459453979498
  0.4984324732751126  0.9870092184258177  0.3330555275696955
  0.0031390593116394  0.9924737516874705  0.3334949944601321
  0.0035609328140169 -0.0002050729466671  0.6588457663632175
  0.9910199313334477  0.6647222183243229  0.6611185978473076
  0.0187262038900310  0.3423487901822308  0.3488910265051023
  0.2279914729437354  0.5252516735445483  0.8324051750155111
  0.4920360491615172  0.3394600498216315  0.6693295463121312
  0.5034632096483705  0.9899786843625281  0.0039492503200631
  0.7439017114176437  0.1647027620893431  0.4943262432139708
  0.2532995319366835  0.1681728599665775  0.1800217341072334
  0.0123735850200434  0.3347448467122789  0.6665869913854173
  0.7633549826524680  0.1504832958140052  0.8275712019646921
  0.5066006246431660  0.6692600759919899  0.6602799822967668
 
  0.00000000E+00  0.00000000E+00  0.00000000E+00
  0.00000000E+00  0.00000000E+00  0.00000000E+00
  0.00000000E+00  0.00000000E+00  0.00000000E+00
  0.00000000E+00  0.00000000E+00  0.00000000E+00
  0.00000000E+00  0.00000000E+00  0.00000000E+00
  0.00000000E+00  0.00000000E+00  0.00000000E+00
  0.00000000E+00  0.00000000E+00  0.00000000E+00
  0.00000000E+00  0.00000000E+00  0.00000000E+00
  0.00000000E+00  0.00000000E+00  0.00000000E+00
  0.00000000E+00  0.00000000E+00  0.00000000E+00
  0.00000000E+00  0.00000000E+00  0.00000000E+00
  0.00000000E+00  0.00000000E+00  0.00000000E+00
  0.00000000E+00  0.00000000E+00  0.00000000E+00
  0.00000000E+00  0.00000000E+00  0.00000000E+00
  0.00000000E+00  0.00000000E+00  0.00000000E+00
  0.00000000E+00  0.00000000E+00  0.00000000E+00
  0.00000000E+00  0.00000000E+00  0.00000000E+00
  0.00000000E+00  0.00000000E+00  0.00000000E+00
  0.00000000E+00  0.00000000E+00  0.00000000E+00
  0.00000000E+00  0.00000000E+00  0.00000000E+00
  0.00000000E+00  0.00000000E+00  0.00000000E+00
  0.00000000E+00  0.00000000E+00  0.00000000E+00
  0.00000000E+00  0.00000000E+00  0.00000000E+00
  0.00000000E+00  0.00000000E+00  0.00000000E+00
  0.00000000E+00  0.00000000E+00  0.00000000E+00
  0.00000000E+00  0.00000000E+00  0.00000000E+00
  0.00000000E+00  0.00000000E+00  0.00000000E+00
  0.00000000E+00  0.00000000E+00  0.00000000E+00
  0.00000000E+00  0.00000000E+00  0.00000000E+00
  0.00000000E+00  0.00000000E+00  0.00000000E+00
  0.00000000E+00  0.00000000E+00  0.00000000E+00
  0.00000000E+00  0.00000000E+00  0.00000000E+00
  0.00000000E+00  0.00000000E+00  0.00000000E+00
  0.00000000E+00  0.00000000E+00  0.00000000E+00
  0.00000000E+00  0.00000000E+00  0.00000000E+00
  0.00000000E+00  0.00000000E+00  0.00000000E+00
