generated by pypospack                  
   4.98831000000000     
     1.3938448699783093    0.0012349619642252   -0.0061207557614845
     0.0018678133085872    2.0549187682452623    0.0036620412027756
    -0.0091306882739793    0.0036870641632050    2.0416455677091672
   Ta   Hf   Zr   Nb
    12     9     9     6
Direct
  0.4996218748394092  0.3425074271376479  0.3429748309183959
  0.7333101157971368  0.8312179647665826  0.8357564168295625
  0.7378446457066682  0.8382512007575293  0.1557545942628706
  0.9984838631735817  0.9825643300823028  0.3156672823675795
  0.2794552164052735  0.4865320152610309  0.1550434932776018
  0.2636648844701608  0.8406683596647303  0.1504582764550014
  0.5156971376440362  0.0006011718405871  0.6627425340966769
  0.7283111504669583  0.4928792092997724  0.1650086568293948
  0.7569133710624222  0.1592459811862321  0.4805129739468619
  0.5036050645885907  0.6676831800095614  0.0014083959986656
  0.5025591879077846  0.6681298704390961  0.6821951679455400
  0.2478480681678481  0.5109257145891185  0.5147552881535667
  0.2786986387889525  0.1667690174277821  0.8322156278399335
  0.9914888511239340  0.0025458252737624  0.9957813045268122
  0.9799467147385097  0.3243724137350190  0.6717927555324327
  0.7430875631762053  0.1676234303297729  0.1776343063687723
  0.9773356000081173  0.0112540332833255  0.6832590114683593
  0.0133029542845700  0.6671546347335456  0.3137772171688316
  0.4982444488695487  0.9869114725386853  0.3372793441592710
  0.5185978469706405  0.3326667310868881  0.6501524579270587
  0.9800562506020987  0.3310694523955164  0.9935420504945842
  0.0095442632235457  0.3509251024557728  0.3307371629324131
  0.4919393572688552  0.6661213592819928  0.3254985269819268
  0.2392152366594980  0.1603626992189302  0.4953707156591470
  0.9978803671785672  0.6660286186281119  0.0053954804314457
  0.7665924691571367  0.5192660905098850  0.5054974019126967
  0.7628224852880074  0.8268738509048590  0.5083161093214199
  0.2558424298002361  0.4955477085707991  0.8308294398850311
  0.2574414590111673  0.1683193931905813  0.1651811649819164
  0.2412182092230892  0.8264510495089766  0.5151846735191516
  0.7103901006037122  0.1619031278457700  0.8416054638720735
  0.9983433699001106  0.6702927712656981  0.6911942103794394
  0.2607589832186341  0.8350152569332092  0.8342658835785844
  0.5177834503420110  0.3410010673544303  0.0004790918522346
  0.7390721685864142  0.5103912999366622  0.8347993541988703
  0.5030702017465554  0.9899361685558242  0.9979343339258664
 
  0.00000000E+00  0.00000000E+00  0.00000000E+00
  0.00000000E+00  0.00000000E+00  0.00000000E+00
  0.00000000E+00  0.00000000E+00  0.00000000E+00
  0.00000000E+00  0.00000000E+00  0.00000000E+00
  0.00000000E+00  0.00000000E+00  0.00000000E+00
  0.00000000E+00  0.00000000E+00  0.00000000E+00
  0.00000000E+00  0.00000000E+00  0.00000000E+00
  0.00000000E+00  0.00000000E+00  0.00000000E+00
  0.00000000E+00  0.00000000E+00  0.00000000E+00
  0.00000000E+00  0.00000000E+00  0.00000000E+00
  0.00000000E+00  0.00000000E+00  0.00000000E+00
  0.00000000E+00  0.00000000E+00  0.00000000E+00
  0.00000000E+00  0.00000000E+00  0.00000000E+00
  0.00000000E+00  0.00000000E+00  0.00000000E+00
  0.00000000E+00  0.00000000E+00  0.00000000E+00
  0.00000000E+00  0.00000000E+00  0.00000000E+00
  0.00000000E+00  0.00000000E+00  0.00000000E+00
  0.00000000E+00  0.00000000E+00  0.00000000E+00
  0.00000000E+00  0.00000000E+00  0.00000000E+00
  0.00000000E+00  0.00000000E+00  0.00000000E+00
  0.00000000E+00  0.00000000E+00  0.00000000E+00
  0.00000000E+00  0.00000000E+00  0.00000000E+00
  0.00000000E+00  0.00000000E+00  0.00000000E+00
  0.00000000E+00  0.00000000E+00  0.00000000E+00
  0.00000000E+00  0.00000000E+00  0.00000000E+00
  0.00000000E+00  0.00000000E+00  0.00000000E+00
  0.00000000E+00  0.00000000E+00  0.00000000E+00
  0.00000000E+00  0.00000000E+00  0.00000000E+00
  0.00000000E+00  0.00000000E+00  0.00000000E+00
  0.00000000E+00  0.00000000E+00  0.00000000E+00
  0.00000000E+00  0.00000000E+00  0.00000000E+00
  0.00000000E+00  0.00000000E+00  0.00000000E+00
  0.00000000E+00  0.00000000E+00  0.00000000E+00
  0.00000000E+00  0.00000000E+00  0.00000000E+00
  0.00000000E+00  0.00000000E+00  0.00000000E+00
  0.00000000E+00  0.00000000E+00  0.00000000E+00
