generated by pypospack                  
   4.98831000000000     
     1.3662636224055054   -0.0055020291000702   -0.0040794516679850
    -0.0079949074263929    2.0215865695918906    0.0004346002950441
    -0.0060826755614467    0.0003660171597303    2.0387571972152587
   Ta   Hf   Nb   Zr
    14     6    10     6
Direct
  0.5252616558605249  0.9923586886756797  0.0041833128696306
  0.2618518587753925  0.8443955298462309  0.4926851058101101
  0.7424457781222009  0.8397702547621132  0.4923377345896632
  0.2451470955700602  0.5054056544601520  0.1777126602680456
  0.7424400393354385  0.4909754674856506  0.5030081501959387
  0.7534422816705318  0.8405301640105199  0.1706640385020269
  0.9801425704323252  0.0023884682756107  0.0004085516615896
  0.7583211033568346  0.4981614691143839  0.8203723322494340
  0.2651180840669198  0.1644871339880182  0.4934909055841339
  0.2784458332903483  0.1519761839226595  0.8301250137783999
  0.5067265498410586  0.9912550387427350  0.6582945251189024
  0.4974008009162122  0.3323166223358362  0.3378288187764882
  0.7501909157569301  0.1622181019242948  0.1739433149538138
  0.7367894171058200  0.1684895875908929  0.4941734983815791
  0.2497278981833295  0.8347000229547882  0.1672689433762088
  0.0112223946640140  0.3287720305146965  0.6638167231338152
  0.7209819047282884  0.1713914818591018  0.8302504776337666
  0.5034525495651608  0.6706642326229052  0.6628119611337755
  0.4801185186185811  0.3444071061427937  0.9983413191112424
  0.9983409033612383  0.0088174907078415  0.6614279744265230
  0.9894476898532649  0.6652836983648361  0.9980624676478511
  0.4985324200688807  0.6637489133750989  0.3423897419735764
  0.7611868650857133  0.8334739174555834  0.8368951775756087
  0.2547151377122187  0.4943265930772414  0.4975111815679392
  0.5098085031496306  0.0012525689242558  0.3346631317138157
  0.9941722805946600  0.9990390123020257  0.3381785621395302
  0.9934055459011369  0.6646254129672825  0.6618547873203723
  0.0028834042986556  0.3313533170922203  0.3456624855323604
  0.2295475332353402  0.5189772657985837  0.8280952544297843
  0.4865314567347525  0.3398065909913029  0.6618890688156571
  0.0017206447935760  0.6677365286517999  0.3463946449966079
  0.2419596720224560  0.8356815204081095  0.8376257262240095
  0.7564017877543603  0.4911101650680274  0.1763603671748031
  0.0150977410734646  0.3306148989778876  0.9915031655966692
  0.5077890378283895  0.6621999935391485  0.9981893794283275
  0.2492291266722917  0.1573018730697004  0.1715844963079946
 
  0.00000000E+00  0.00000000E+00  0.00000000E+00
  0.00000000E+00  0.00000000E+00  0.00000000E+00
  0.00000000E+00  0.00000000E+00  0.00000000E+00
  0.00000000E+00  0.00000000E+00  0.00000000E+00
  0.00000000E+00  0.00000000E+00  0.00000000E+00
  0.00000000E+00  0.00000000E+00  0.00000000E+00
  0.00000000E+00  0.00000000E+00  0.00000000E+00
  0.00000000E+00  0.00000000E+00  0.00000000E+00
  0.00000000E+00  0.00000000E+00  0.00000000E+00
  0.00000000E+00  0.00000000E+00  0.00000000E+00
  0.00000000E+00  0.00000000E+00  0.00000000E+00
  0.00000000E+00  0.00000000E+00  0.00000000E+00
  0.00000000E+00  0.00000000E+00  0.00000000E+00
  0.00000000E+00  0.00000000E+00  0.00000000E+00
  0.00000000E+00  0.00000000E+00  0.00000000E+00
  0.00000000E+00  0.00000000E+00  0.00000000E+00
  0.00000000E+00  0.00000000E+00  0.00000000E+00
  0.00000000E+00  0.00000000E+00  0.00000000E+00
  0.00000000E+00  0.00000000E+00  0.00000000E+00
  0.00000000E+00  0.00000000E+00  0.00000000E+00
  0.00000000E+00  0.00000000E+00  0.00000000E+00
  0.00000000E+00  0.00000000E+00  0.00000000E+00
  0.00000000E+00  0.00000000E+00  0.00000000E+00
  0.00000000E+00  0.00000000E+00  0.00000000E+00
  0.00000000E+00  0.00000000E+00  0.00000000E+00
  0.00000000E+00  0.00000000E+00  0.00000000E+00
  0.00000000E+00  0.00000000E+00  0.00000000E+00
  0.00000000E+00  0.00000000E+00  0.00000000E+00
  0.00000000E+00  0.00000000E+00  0.00000000E+00
  0.00000000E+00  0.00000000E+00  0.00000000E+00
  0.00000000E+00  0.00000000E+00  0.00000000E+00
  0.00000000E+00  0.00000000E+00  0.00000000E+00
  0.00000000E+00  0.00000000E+00  0.00000000E+00
  0.00000000E+00  0.00000000E+00  0.00000000E+00
  0.00000000E+00  0.00000000E+00  0.00000000E+00
  0.00000000E+00  0.00000000E+00  0.00000000E+00
