generated by pypospack
   4.98831
  1.412665   0.002324  -0.006744
  0.003408   2.068350  -0.000934
 -0.010069  -0.000961   2.074494
 Ta Nb Zr Hf
 9 4 13 10
Direct
  0.741487   0.832461   0.827896
  0.757408   0.840655   0.169338
 -0.008704   0.992977   0.325537
  0.283018   0.496573   0.145843
  0.236562   0.843403   0.180639
  0.503114   0.990787   0.663427
  0.726002   0.508296   0.155164
  0.777247   0.153896   0.487808
  0.504555   0.673095   0.997763
 -0.004830   0.673690   0.693365
  0.249733   0.828134   0.818614
  0.518988   0.352818   0.003157
  0.739680   0.506924   0.841519
  0.000812   0.345342   0.318453
  0.495064   0.669330   0.325036
  0.003433   0.994198   0.995968
  0.227421   0.166722   0.503153
  0.272082   0.171496   0.833035
  0.000259   0.669258   0.000335
  0.509551   0.336212   0.341224
  0.788597   0.519126   0.503584
  0.506340   0.669180   0.671562
  0.767249   0.830368   0.503549
  0.257931   0.493931   0.834856
  0.262342   0.168264   0.158613
  0.233787   0.831087   0.503050
  0.968130   0.321259   0.680373
  0.742003   0.157440   0.168017
 -0.012380   0.004995   0.681867
  0.228181   0.501935   0.514890
  0.012612   0.660467   0.305344
  0.483279   0.965993   0.002286
  0.506013   0.996587   0.341740
  0.529778   0.333107   0.648855
  0.983320   0.340856   0.004937
  0.709937   0.159144   0.849217
