generated by pypospack                  
   4.98831000000000     
     1.3819195398132256    0.0011214816085479    0.0009489599487350
     0.0017342728933841    2.0472662954643899   -0.0044278296941707
     0.0011940742511665   -0.0046060959096313    2.0402681406561811
   Zr   Ta   Nb   Hf
     7     8    12     9
Direct
  0.0190940008030540  0.0077334901638086  0.0074967128159467
  0.7666327348652264  0.1656916668451447  0.4949141506828957
  0.7484316286529294  0.1640204219676500  0.8325483520158576
  0.7362786563031765  0.1666650966294423  0.1717153503352829
  0.5059567530180044  0.3380156713262510  0.6640471581175331
  0.7540647942785306  0.8418791912082526  0.8287514041965988
  0.2305699899850476  0.4958007351739984  0.4968750776118301
  0.2659576546975869  0.5044402053574543  0.1696983359100283
  0.7476144530761519  0.4951736594241364  0.8355238554022983
  0.7306994003905629  0.4940337525142766  0.1778126602393356
  0.0372417544623164  0.0009228318878219  0.6657748983376014
  0.5041576140073386  0.6653576159917635  0.3423882318837722
  0.7689535179974010  0.5008795028929333  0.4909660862473421
  0.9960345084937466  0.6648040212433333  0.3244429034419045
  0.4751407207586514  0.0120012197417224 -0.0001953080466519
  0.2619488292879434  0.1684249031028602  0.1764720634132916
  0.9777201520605585  0.6605975455759523  0.6640242662873128
  0.5292862624289126  0.6589526361073241  0.0075730692942765
  0.0055814046309992  0.9898325642915742  0.3228790221927320
  0.4965914523580080  0.9912213747138897  0.3339213357659818
  0.7351756896917336  0.8346520436106997  0.1804720660128326
  0.4987959329425071  0.3428464770452245  0.3316428658995922
  0.0008668990433264  0.3426588875532394  0.3126121444400402
  0.9960461111424385  0.3347983624135143  0.6837808658966890
  0.2377598075396541  0.8328596257275097  0.4871451352914209
  0.4904332559234513  0.3310595922275463  0.9990711839632236
  0.2504260364930865  0.1736362307730785  0.8318393445934625
  0.5180621634965651  0.6624176591160323  0.6540605897062159
  0.2501523601998447  0.5109727005514136  0.8388999690766066
  0.2351616196293796  0.1720493739861471  0.4857521415658049
  0.0062692588690774  0.3354879953214152  0.0053609378530965
  0.9685727050353421  0.6593237814904801  0.0180184687395286
  0.2658985326161279  0.8239637084766127  0.1652349957436364
  0.4689400467378504 -0.0014045212557473  0.6607118435229355
  0.7684427097830191  0.8380902013843892  0.4970589973207671
  0.2510275883004681  0.8201447754188572  0.8407048242289594
 
  0.00000000E+00  0.00000000E+00  0.00000000E+00
  0.00000000E+00  0.00000000E+00  0.00000000E+00
  0.00000000E+00  0.00000000E+00  0.00000000E+00
  0.00000000E+00  0.00000000E+00  0.00000000E+00
  0.00000000E+00  0.00000000E+00  0.00000000E+00
  0.00000000E+00  0.00000000E+00  0.00000000E+00
  0.00000000E+00  0.00000000E+00  0.00000000E+00
  0.00000000E+00  0.00000000E+00  0.00000000E+00
  0.00000000E+00  0.00000000E+00  0.00000000E+00
  0.00000000E+00  0.00000000E+00  0.00000000E+00
  0.00000000E+00  0.00000000E+00  0.00000000E+00
  0.00000000E+00  0.00000000E+00  0.00000000E+00
  0.00000000E+00  0.00000000E+00  0.00000000E+00
  0.00000000E+00  0.00000000E+00  0.00000000E+00
  0.00000000E+00  0.00000000E+00  0.00000000E+00
  0.00000000E+00  0.00000000E+00  0.00000000E+00
  0.00000000E+00  0.00000000E+00  0.00000000E+00
  0.00000000E+00  0.00000000E+00  0.00000000E+00
  0.00000000E+00  0.00000000E+00  0.00000000E+00
  0.00000000E+00  0.00000000E+00  0.00000000E+00
  0.00000000E+00  0.00000000E+00  0.00000000E+00
  0.00000000E+00  0.00000000E+00  0.00000000E+00
  0.00000000E+00  0.00000000E+00  0.00000000E+00
  0.00000000E+00  0.00000000E+00  0.00000000E+00
  0.00000000E+00  0.00000000E+00  0.00000000E+00
  0.00000000E+00  0.00000000E+00  0.00000000E+00
  0.00000000E+00  0.00000000E+00  0.00000000E+00
  0.00000000E+00  0.00000000E+00  0.00000000E+00
  0.00000000E+00  0.00000000E+00  0.00000000E+00
  0.00000000E+00  0.00000000E+00  0.00000000E+00
  0.00000000E+00  0.00000000E+00  0.00000000E+00
  0.00000000E+00  0.00000000E+00  0.00000000E+00
  0.00000000E+00  0.00000000E+00  0.00000000E+00
  0.00000000E+00  0.00000000E+00  0.00000000E+00
  0.00000000E+00  0.00000000E+00  0.00000000E+00
  0.00000000E+00  0.00000000E+00  0.00000000E+00
