generated by pypospack
   4.98831
  1.379723  -0.000515   0.004147
 -0.000699   2.043353  -0.005007
  0.005922  -0.005186   2.034414
 Zr Ta Nb Hf
 7 8 12 9
Direct
  0.018076   0.005320   0.005136
  0.767058   0.164728   0.494105
  0.748008   0.162865   0.832204
  0.736668   0.167116   0.170741
  0.505135   0.337915   0.663582
  0.748183   0.836663   0.826618
  0.237391   0.497103   0.498895
  0.265087   0.503844   0.169179
  0.745503   0.501178   0.829944
  0.730955   0.494343   0.177225
  0.035511   0.998048   0.667340
  0.504680   0.665720   0.342198
  0.761787   0.505480   0.496635
  0.996321   0.665522   0.327106
  0.474465   0.012324   0.000587
  0.257545   0.169383   0.175800
  0.988002   0.662318   0.663367
  0.531307   0.659570   0.007918
  0.003120   0.987323   0.323994
  0.496234   0.991142   0.336140
  0.736401   0.835383   0.180968
  0.498280   0.342091   0.330028
  0.998417   0.345137   0.312773
  0.995782   0.336935   0.683403
  0.242813   0.829516   0.492067
  0.488719   0.330892  -0.000574
  0.248682   0.173343   0.832914
  0.518287   0.656614   0.655207
  0.256759   0.512563   0.837070
  0.231345   0.172323   0.484818
  0.004335   0.337219   0.003428
  0.971754   0.660259   0.017140
  0.266021   0.825104   0.165453
  0.469070   0.002280   0.658618
  0.761235   0.833549   0.500620
  0.261051   0.818892   0.837349
