generated by pypospack                  
   5.17602000000000     
     1.5588565899186990    0.0019953014385112    0.0002271197763702
     0.0019759741966047    1.5867827980533509    0.0043226763326485
     0.0002205115886012    0.0043151848672218    1.5790832377748136
   Pt   Au
    16    16
Direct
  0.2503071844715200  0.2513669056296747  0.0008717337456647
  0.0013724292684726  0.2494617284477193  0.2500992266881877
  0.0024218199770921  0.0032169268328050  0.4977697746067662
  0.2501961706647940  0.0024396384717116  0.7501896648870113
  0.2483063341997613  0.7494937482453978  0.0034709496642524
 -0.0007429110412939  0.7502735041137476  0.2485948931215237
  0.2509337494703964  0.7481255793560223  0.4988523301105172
  0.2483531650655248  0.4996528818243809  0.7501958427477223
 -0.0018656510458357  0.7482351410811123  0.7525036646522859
  0.4994539972643940  0.0004247045619238 -0.0026591652432180
  0.4995991051216983  0.0003603198871256  0.4995452499607774
  0.7499301605392141  0.2504095339976556  0.4985914144948233
  0.7503941913557824  0.0021001704493351  0.7512767669099125
  0.5012680038762340  0.4996885278524045  0.0021032611628377
  0.7489408124546597  0.7488169415333220  0.0007857129956427
  0.7508746204532069  0.7468543646485183  0.4967594689258312
 -0.0022424546397683  0.0061571131220805  0.0026436617837999
  0.2550024864281200  0.0022896071661051  0.2498168360603994
  0.2535954915928379  0.2554281834018194  0.5006778503091948
 -0.0010667207305303  0.2536379723434327  0.7522942523064235
 -0.0063999119865468  0.4946185261443248  0.0035583406596068
  0.2508616809229445  0.4982117137942316  0.2561118415993341
  0.0001180667536633  0.4939722871506206  0.4999654679636644
  0.7499658346919930  0.2518346609922242 -0.0005275699010974
  0.7443699427150026  0.0042574698875844  0.2417972184403590
  0.4983372567930352  0.2519249095684511  0.2525877120307276
  0.5021985868112306  0.2564844446732327  0.7470381837041385
  0.7477234691103782  0.4969241159104377  0.2501868583704132
  0.4998218781323609  0.7484745853878536  0.2523484955908842
  0.5014699472261328  0.4984467915817142  0.4973465087129173
  0.7522508829900971  0.4944350038642278  0.7494965362722453
  0.5042503810934283  0.7419819980788037  0.7457070166664518
 
  0.00000000E+00  0.00000000E+00  0.00000000E+00
  0.00000000E+00  0.00000000E+00  0.00000000E+00
  0.00000000E+00  0.00000000E+00  0.00000000E+00
  0.00000000E+00  0.00000000E+00  0.00000000E+00
  0.00000000E+00  0.00000000E+00  0.00000000E+00
  0.00000000E+00  0.00000000E+00  0.00000000E+00
  0.00000000E+00  0.00000000E+00  0.00000000E+00
  0.00000000E+00  0.00000000E+00  0.00000000E+00
  0.00000000E+00  0.00000000E+00  0.00000000E+00
  0.00000000E+00  0.00000000E+00  0.00000000E+00
  0.00000000E+00  0.00000000E+00  0.00000000E+00
  0.00000000E+00  0.00000000E+00  0.00000000E+00
  0.00000000E+00  0.00000000E+00  0.00000000E+00
  0.00000000E+00  0.00000000E+00  0.00000000E+00
  0.00000000E+00  0.00000000E+00  0.00000000E+00
  0.00000000E+00  0.00000000E+00  0.00000000E+00
  0.00000000E+00  0.00000000E+00  0.00000000E+00
  0.00000000E+00  0.00000000E+00  0.00000000E+00
  0.00000000E+00  0.00000000E+00  0.00000000E+00
  0.00000000E+00  0.00000000E+00  0.00000000E+00
  0.00000000E+00  0.00000000E+00  0.00000000E+00
  0.00000000E+00  0.00000000E+00  0.00000000E+00
  0.00000000E+00  0.00000000E+00  0.00000000E+00
  0.00000000E+00  0.00000000E+00  0.00000000E+00
  0.00000000E+00  0.00000000E+00  0.00000000E+00
  0.00000000E+00  0.00000000E+00  0.00000000E+00
  0.00000000E+00  0.00000000E+00  0.00000000E+00
  0.00000000E+00  0.00000000E+00  0.00000000E+00
  0.00000000E+00  0.00000000E+00  0.00000000E+00
  0.00000000E+00  0.00000000E+00  0.00000000E+00
  0.00000000E+00  0.00000000E+00  0.00000000E+00
  0.00000000E+00  0.00000000E+00  0.00000000E+00
