generated by pypospack                  
   4.98831000000000     
     1.3630657460495963   -0.0037939439575409   -0.0005552161204590
    -0.0054662806435177    2.0219109159476458   -0.0009701370785116
    -0.0007800538245279   -0.0010140229195479    2.0409714132328540
   Ta   Hf   Nb   Zr
    15     7     9     5
Direct
  0.5221950081650413  0.9975915493196547  0.0037541178201628
  0.2449603975348022  0.8381620834694428  0.4962352546778408
  0.7579523863414969  0.8381717230275298  0.4965393418401695
  0.2425296738243257  0.5083688841541993  0.1779419749032669
  0.9803595055132850  0.6689285948391646  0.0018391789668393
  0.7529291016433789  0.4983696852703630  0.4934225255156598
  0.7497847137151228  0.8367475593797633  0.1731373435044556
  0.9802202643285506  0.9987081103895715  0.0059848063954757
  0.7692593302495825  0.4972303334462387  0.8224422445938120
  0.9971584176109389  0.6689440321060987  0.3400679323353619
  0.2559014392481254  0.1572670689900081  0.4936105113065241
  0.2607983593615629  0.1411272968676861  0.8305003547516275
  0.5021016567523898  0.9869804242448929  0.6601715998253871
  0.4902140676149999  0.3355691155501471  0.3408258855133130
  0.7472042452469312  0.1619826103449529  0.1738553642248787
  0.2496240758207528  0.8290749869151960  0.1691092458725580
  0.4774890881355269  0.3448070658044933  0.6697995700116181
  0.7506720328531253  0.1673625521758536  0.4969877086084232
  0.0242275913256888  0.3345703085430580  0.6641647648049650
  0.7435716185075962  0.1637890701936303  0.8273282355326169
  0.5050142545136872  0.6704224773948558  0.6620301492138977
  0.4835599338248633  0.3369475759186283  0.9924822156809487
  0.4976063714328201  0.6651351877562601  0.3439653701085723
  0.7585018110063027  0.8390156712769055  0.8306197220751727
  0.2447131151749858  0.5072512515790144  0.4896439312858039
  0.5062022139385074  0.9973254743550721  0.3355700099872204
  0.9966500884055425  0.9952549729556810  0.3328351249331953
  0.0048090820307297  0.0014012704488774  0.6621680248682099
  0.9946209840130635  0.6661099170346356  0.6603662206451977
  0.0109719320181951  0.3380441751421288  0.3411420295841102
  0.2199975141891297  0.5263999774755165  0.8359965890986105
  0.2427005696995915  0.8380870826503951  0.8357115956013834
  0.7516867094730160  0.4929923028388878  0.1781922029880851
  0.0171379938571855  0.3312777813966014  0.9945577062306766
  0.5120644996576551  0.6605334143188919  0.9929179420311394
  0.2546109529715196  0.1600614124257123  0.1740842046628173
 
  0.00000000E+00  0.00000000E+00  0.00000000E+00
  0.00000000E+00  0.00000000E+00  0.00000000E+00
  0.00000000E+00  0.00000000E+00  0.00000000E+00
  0.00000000E+00  0.00000000E+00  0.00000000E+00
  0.00000000E+00  0.00000000E+00  0.00000000E+00
  0.00000000E+00  0.00000000E+00  0.00000000E+00
  0.00000000E+00  0.00000000E+00  0.00000000E+00
  0.00000000E+00  0.00000000E+00  0.00000000E+00
  0.00000000E+00  0.00000000E+00  0.00000000E+00
  0.00000000E+00  0.00000000E+00  0.00000000E+00
  0.00000000E+00  0.00000000E+00  0.00000000E+00
  0.00000000E+00  0.00000000E+00  0.00000000E+00
  0.00000000E+00  0.00000000E+00  0.00000000E+00
  0.00000000E+00  0.00000000E+00  0.00000000E+00
  0.00000000E+00  0.00000000E+00  0.00000000E+00
  0.00000000E+00  0.00000000E+00  0.00000000E+00
  0.00000000E+00  0.00000000E+00  0.00000000E+00
  0.00000000E+00  0.00000000E+00  0.00000000E+00
  0.00000000E+00  0.00000000E+00  0.00000000E+00
  0.00000000E+00  0.00000000E+00  0.00000000E+00
  0.00000000E+00  0.00000000E+00  0.00000000E+00
  0.00000000E+00  0.00000000E+00  0.00000000E+00
  0.00000000E+00  0.00000000E+00  0.00000000E+00
  0.00000000E+00  0.00000000E+00  0.00000000E+00
  0.00000000E+00  0.00000000E+00  0.00000000E+00
  0.00000000E+00  0.00000000E+00  0.00000000E+00
  0.00000000E+00  0.00000000E+00  0.00000000E+00
  0.00000000E+00  0.00000000E+00  0.00000000E+00
  0.00000000E+00  0.00000000E+00  0.00000000E+00
  0.00000000E+00  0.00000000E+00  0.00000000E+00
  0.00000000E+00  0.00000000E+00  0.00000000E+00
  0.00000000E+00  0.00000000E+00  0.00000000E+00
  0.00000000E+00  0.00000000E+00  0.00000000E+00
  0.00000000E+00  0.00000000E+00  0.00000000E+00
  0.00000000E+00  0.00000000E+00  0.00000000E+00
  0.00000000E+00  0.00000000E+00  0.00000000E+00
