generated by pypospack
   4.94975
  1.616446  -0.004602   0.002839
 -0.004493   1.661254  -0.007629
  0.002773  -0.007660   1.647613
 Pt Au
 15 17
Direct
  0.002546  -0.005058   0.500210
  0.254673   0.243919   0.498611
  0.253505  -0.002802   0.746940
 -0.003171   0.503907   0.006664
  0.247099   0.753467   0.000242
 -0.002179   0.750965   0.249869
  0.249687   0.753743   0.497990
  0.503111   0.003397  -0.000987
  0.747849   0.248324   0.004757
  0.746990   0.001447   0.252278
  0.506291   0.247741   0.252935
  0.498982   0.001869   0.500245
  0.747813   0.003626   0.749327
  0.750501   0.497866   0.248117
  0.496743   0.496663   0.492812
  0.749064   0.752762   0.001738
 -0.001798  -0.000107  -0.000754
  0.251563   0.248974   0.000603
  0.251838  -0.001473   0.249156
 -0.000669   0.247943   0.251286
  0.001842   0.247578   0.750738
  0.249480   0.500882   0.250115
  0.002535   0.500639   0.498066
  0.249269   0.501122   0.749111
  0.000627   0.752079   0.749930
  0.750857   0.248522   0.500179
  0.500011   0.249022   0.749123
  0.499854   0.499975   0.002475
  0.499379   0.751344   0.250631
  0.748445   0.750912   0.498262
  0.749964   0.498750   0.751572
  0.497301   0.752004   0.747760
