generated by pypospack
   4.98831
  1.358928  -0.003001  -0.005043
 -0.004256   2.022558   0.001147
 -0.007495   0.001070   2.036316
 Ta Hf Nb Zr
 14 6 10 6
Direct
  0.522451   0.996836   0.002845
  0.250127   0.845312   0.498281
  0.754658   0.841790   0.498485
  0.251664   0.504532   0.176541
  0.742821   0.491440   0.499867
  0.749025   0.841217   0.170144
  0.978868   0.002410   0.003978
  0.759029   0.498022   0.821920
  0.257829   0.161491   0.497543
  0.264796   0.148336   0.826133
  0.504747   0.990804   0.658453
  0.496969   0.330454   0.341497
  0.747679   0.162688   0.174626
  0.746141   0.164774   0.499688
  0.253297   0.833686   0.166947
  0.013660   0.332929   0.663534
  0.732364   0.167424   0.824766
  0.504412   0.671705   0.662355
  0.479138   0.339129   0.993043
  0.999494   0.006319   0.660888
  0.988838   0.666065  -0.002322
  0.500030   0.664409   0.343754
  0.761847   0.838212   0.832347
  0.257705   0.495344   0.496032
  0.509127   0.000979   0.337445
  0.994150   0.998829   0.336035
  0.994954   0.663502   0.661563
  0.003526   0.331383   0.345859
  0.229924   0.520905   0.830373
  0.488825   0.338925   0.662760
  0.000520   0.666957   0.342736
  0.239586   0.839080   0.834282
  0.749344   0.489631   0.176228
  0.013769   0.331916   0.993306
  0.509625   0.663448   0.995057
  0.249058   0.159130   0.173016
