generated by pypospack
   4.98831
  1.392404   0.000801  -0.000529
  0.001130   2.065336   0.002129
 -0.000650   0.002023   2.044711
 Ta Zr Nb Hf
 8 11 9 8
Direct
  0.734594   0.505276   0.172688
  0.510123   0.668384   0.989589
  0.264308   0.179315   0.171809
  0.028379   0.003967   0.322389
  0.024169   0.977641   0.679920
  0.750896   0.493662   0.491478
  0.498117   0.342687   0.654416
  0.512240   0.667484   0.349616
  0.765877   0.170419   0.502328
  0.249218   0.179435   0.826376
  0.754677   0.170609   0.819765
  0.005612   0.000949   0.002452
  0.228934   0.177439   0.503855
  0.262934   0.505793   0.173205
  0.502959   0.995291   0.994548
  0.737833   0.169152   0.177439
  0.474815   0.998238   0.342134
  0.732123   0.485973   0.833782
  0.495526   0.668725   0.662690
  0.505021   0.334221   0.336227
  0.263598   0.491471   0.831754
  0.991622   0.335155   0.315643
  0.998078   0.357402   0.668092
  0.984908   0.661357   0.339650
  0.224246   0.828206   0.491848
  0.255167   0.826745   0.846717
  0.493447   0.335529   0.004979
  0.750813   0.836196   0.827839
  0.003414   0.338001   0.011188
  0.991782   0.659673   0.987691
  0.253566   0.815187   0.168507
  0.481027   0.989239   0.668153
  0.752970   0.823455   0.176464
  0.772873   0.846412   0.494188
  0.241750   0.495497   0.488714
  0.002393   0.665818   0.671871
