generated by pypospack
   4.98831
  1.397637   0.002058  -0.002357
  0.003117   2.038131  -0.000174
 -0.003571  -0.000212   2.053870
 Hf Nb Ta Zr
 9 6 11 10
Direct
  0.279981   0.167783   0.836209
  0.990692   0.003057  -0.001294
  0.982770   0.331739   0.675328
  0.986149   0.009375   0.685925
  0.015195   0.664971   0.314768
  0.518566   0.998215   0.332152
  0.520646   0.333864   0.652591
  0.976055   0.330132   0.996489
  0.729188   0.825419   0.834010
  0.740139   0.169030   0.169662
  0.714050   0.159826   0.837694
  0.265155   0.831582   0.832070
  0.526225   0.335260   0.005441
  0.738615   0.513232   0.834789
  0.500654   0.992513   0.004546
  0.510768   0.335666   0.336053
  0.738095   0.834443   0.153409
  0.976480   0.995462   0.315350
  0.256083   0.848695   0.161793
  0.511976   0.005240   0.660528
  0.727689   0.498338   0.165442
  0.764837   0.160216   0.489847
  0.494701   0.666416   0.006961
  0.484121   0.658911   0.672087
  0.249528   0.506984   0.510856
  0.016951   0.662320   0.684358
  0.277108   0.481919   0.156230
 -0.002913   0.343849   0.327080
  0.485785   0.667744   0.325122
  0.237433   0.163297   0.496286
  0.003614   0.664486   0.005789
  0.760888   0.521388   0.502651
  0.761006   0.828468   0.508618
  0.262454   0.490383   0.839053
  0.256654   0.167653   0.165591
  0.242643   0.832128   0.506517
