generated by pypospack                  
   4.98831000000000     
     1.3971425085310059   -0.0025777838625975    0.0007630897828969
    -0.0036781541541232    2.0536033082261858    0.0043925377814889
     0.0011691744199522    0.0043135928242456    2.0459759146225607
   Hf   Ta   Nb   Zr
    12    12     5     7
Direct
  0.7629953357970888  0.4948218341537725  0.1719736627115742
  0.2573346949505645  0.8290310072831052  0.8407397740027491
  0.7214619719085591  0.8303412675303923  0.4905786014762151
  0.7546019714226083  0.4922342017103730  0.8327861325366374
  0.2263458048144085  0.5046172454746116  0.1565806545964450
  0.0175080239392460  0.6808336931600505  0.3396381998716338
  0.7670921016800428  0.1787565648783123  0.4944052036013823
  0.4643204805322444  0.3356688310396109  0.3361262623319552
  0.0166259020478516  0.9954373906086389  0.3328636601975108
  0.5109361957003189  0.6631221309028206  0.0046217818731797
  0.5160457667859857  0.0134010866539166  0.6799037912715347
  0.9899069127075510  0.0007388649249906  0.6716176386298082
  0.7404736913471425  0.8326553378814424  0.1715293196371982
  0.2301021958267867  0.1764272198808212  0.5114210028953323
  0.0359072146634979  0.3322578666037027  0.3387881772592808
  0.2533498526270609  0.4965587588094397  0.8270032181631034
  0.2517690470127104  0.8261053110514175  0.1501540039024358
  0.4883017267511798  0.3302234493934416  0.6676058515003171
  0.4860129944916298  0.3268263433115680  0.9916828810926026
  0.2586494574475225  0.4999819475369744  0.5098733033643945
  0.4847396430257627  0.6632269369276146  0.3135901398550447
  0.5050958267718935  0.9993347045853007 -0.0011875098777912
  0.5025376431069752  0.6533914935357525  0.6818702496393412
  0.7414564490984323  0.8239577211323771  0.8387270871113278
  0.0154024993230476  0.3355100194412629  0.6685289463437361
  0.2581235957135702  0.1672767237456055  0.1580773087160111
  0.9812570210562114  0.6779596877600415  0.0019258504789113
  0.7403704560265321  0.1817155979710528  0.8332261609266477
  0.2629216781273123  0.1679071300534054  0.8294261694165589
  0.7447147205858580  0.4966719716219166  0.4969119393585584
  0.9923536130267321  0.0000492220490156  0.9986943561277828
  0.0159669923617739  0.3156087226601791  0.9910456428748990
  0.0001090865422134  0.6717338755062169  0.6610888469304697
  0.4728853484990584  0.0042658136330043  0.3230667938679690
  0.2889146300568153  0.8259796363951568  0.5113299185373510
  0.7434094542238333  0.1753753901927038  0.1737849787778776
 
  0.00000000E+00  0.00000000E+00  0.00000000E+00
  0.00000000E+00  0.00000000E+00  0.00000000E+00
  0.00000000E+00  0.00000000E+00  0.00000000E+00
  0.00000000E+00  0.00000000E+00  0.00000000E+00
  0.00000000E+00  0.00000000E+00  0.00000000E+00
  0.00000000E+00  0.00000000E+00  0.00000000E+00
  0.00000000E+00  0.00000000E+00  0.00000000E+00
  0.00000000E+00  0.00000000E+00  0.00000000E+00
  0.00000000E+00  0.00000000E+00  0.00000000E+00
  0.00000000E+00  0.00000000E+00  0.00000000E+00
  0.00000000E+00  0.00000000E+00  0.00000000E+00
  0.00000000E+00  0.00000000E+00  0.00000000E+00
  0.00000000E+00  0.00000000E+00  0.00000000E+00
  0.00000000E+00  0.00000000E+00  0.00000000E+00
  0.00000000E+00  0.00000000E+00  0.00000000E+00
  0.00000000E+00  0.00000000E+00  0.00000000E+00
  0.00000000E+00  0.00000000E+00  0.00000000E+00
  0.00000000E+00  0.00000000E+00  0.00000000E+00
  0.00000000E+00  0.00000000E+00  0.00000000E+00
  0.00000000E+00  0.00000000E+00  0.00000000E+00
  0.00000000E+00  0.00000000E+00  0.00000000E+00
  0.00000000E+00  0.00000000E+00  0.00000000E+00
  0.00000000E+00  0.00000000E+00  0.00000000E+00
  0.00000000E+00  0.00000000E+00  0.00000000E+00
  0.00000000E+00  0.00000000E+00  0.00000000E+00
  0.00000000E+00  0.00000000E+00  0.00000000E+00
  0.00000000E+00  0.00000000E+00  0.00000000E+00
  0.00000000E+00  0.00000000E+00  0.00000000E+00
  0.00000000E+00  0.00000000E+00  0.00000000E+00
  0.00000000E+00  0.00000000E+00  0.00000000E+00
  0.00000000E+00  0.00000000E+00  0.00000000E+00
  0.00000000E+00  0.00000000E+00  0.00000000E+00
  0.00000000E+00  0.00000000E+00  0.00000000E+00
  0.00000000E+00  0.00000000E+00  0.00000000E+00
  0.00000000E+00  0.00000000E+00  0.00000000E+00
  0.00000000E+00  0.00000000E+00  0.00000000E+00
