generated by pypospack
   4.98831
  1.402834  -0.003412   0.004003
 -0.004927   2.055887   0.008749
  0.005931   0.008637   2.048638
 Hf Ta Nb Zr
 12 12 5 7
Direct
  0.759843   0.497267   0.171504
  0.248058   0.829799   0.839512
  0.726733   0.830231   0.492090
  0.739549   0.496697   0.837947
  0.223366   0.504697   0.155612
  0.019088   0.678037   0.340711
  0.741656   0.175470   0.487200
  0.459822   0.335905   0.327901
  0.016531   0.998079   0.333515
  0.508777   0.670926   0.007509
  0.526676   0.008443   0.684654
  0.988328   0.005043   0.671003
  0.742662   0.830485   0.174701
  0.261776   0.166252   0.508889
  0.035219   0.330271   0.346245
  0.269147   0.499291   0.830309
  0.247252   0.827962   0.150487
  0.490798   0.328055   0.671817
  0.480763   0.325319   0.993906
  0.277069   0.504493   0.506301
  0.480886   0.665685   0.315389
  0.503798   0.997906   0.000477
  0.502737   0.658243   0.679286
  0.753526   0.820236   0.836874
  0.013720   0.333295   0.663872
  0.243680   0.169141   0.158111
  0.981793   0.677739   0.003896
  0.734453   0.180508   0.840250
  0.268426   0.161382   0.831842
  0.735255   0.496282   0.492454
  0.989204   0.000785  -0.001003
  0.015591   0.320468   0.984322
  0.006313   0.662342   0.660414
  0.473987   0.002891   0.316849
  0.283913   0.832290   0.512598
  0.749605   0.178090   0.172556
