generated by pypospack                  
   4.98831000000000     
     1.3880741843068602    0.0009896711834893   -0.0016266316417575
     0.0011130862972009    1.4223542767521526    0.0091357992511342
    -0.0013844874188660    0.0088099746934553    1.4093433996435485
   Ta   Hf   Zr   Nb
     3     4     8     1
Direct
  0.9943662034815767  0.4628685197169053  0.4778581834693406
  0.7391201517383515  0.2724659407428212  0.2387323198009177
  0.5108761570224778  0.5296296666632476  0.0085490213637696
  0.9909545145509168  0.5310333700424990  0.0182510255966675
  0.2515762345471023  0.7257927416027621  0.7267117316412623
  0.7403410221005162  0.7322880411992996  0.2854684767058670
  0.7515478813326286  0.7281835392890998  0.7239101673889491
  0.9962217778820752  0.9861793917515163  0.0019150474033304
  0.2606177966234881  0.2615215184479346  0.2240688859138862
  0.9938034156540980  0.0267359777121060  0.4937647448222103
  0.2508944058495824  0.2736070058566263  0.7622911374053757
  0.2581118065409937  0.7349270712360016  0.2828835780334710
  0.5036289750049449  0.9771208759054969  0.9981138435946388
  0.5045495205418937  0.0222227892943025  0.5053565199543262
  0.7487322413533453  0.2734275493391713  0.7626209340542850
  0.5046578957760155  0.4619960012002019  0.4895043828516885
 
  0.00000000E+00  0.00000000E+00  0.00000000E+00
  0.00000000E+00  0.00000000E+00  0.00000000E+00
  0.00000000E+00  0.00000000E+00  0.00000000E+00
  0.00000000E+00  0.00000000E+00  0.00000000E+00
  0.00000000E+00  0.00000000E+00  0.00000000E+00
  0.00000000E+00  0.00000000E+00  0.00000000E+00
  0.00000000E+00  0.00000000E+00  0.00000000E+00
  0.00000000E+00  0.00000000E+00  0.00000000E+00
  0.00000000E+00  0.00000000E+00  0.00000000E+00
  0.00000000E+00  0.00000000E+00  0.00000000E+00
  0.00000000E+00  0.00000000E+00  0.00000000E+00
  0.00000000E+00  0.00000000E+00  0.00000000E+00
  0.00000000E+00  0.00000000E+00  0.00000000E+00
  0.00000000E+00  0.00000000E+00  0.00000000E+00
  0.00000000E+00  0.00000000E+00  0.00000000E+00
  0.00000000E+00  0.00000000E+00  0.00000000E+00
