generated by pypospack                  
   4.98831000000000     
     1.3880741843068602    0.0009896711834893   -0.0016266316417575
     0.0011130862972009    1.4223542767521526    0.0091357992511342
    -0.0013844874188660    0.0088099746934553    1.4093433996435485
   Ta   Hf   Zr   Nb
     3     4     8     1
Direct
 -0.0056338136861831  0.4628685230490471  0.4778581853781387
  0.7391201654490396  0.2724659585581283  0.2387322915378042
  0.5108761731962284  0.5296296857822396  0.0085489965374414
 -0.0090454927161250  0.5310333872924298  0.0182510365083460
  0.2515762245505075  0.7257927504996327  0.7267117386675244
  0.7403410351715872  0.7322880155134918  0.2854684593290107
  0.7515478927940782  0.7281835382259018  0.7239101692312152
 -0.0037782466012429 -0.0138206230134721  0.0019150699265982
  0.2606177987081185  0.2615215287927795  0.2240688641887404
 -0.0061965852937397  0.0267359518496727  0.4937647482596672
  0.2508943893194007  0.2736070109660901  0.7622911467568398
  0.2581118024896081  0.7349270686447184  0.2828835648122255
  0.5036289814821342 -0.0228791396823103 -0.0018861448632308
  0.5045495279562336  0.0222227638772476  0.5053564930920549
  0.7487322441954952  0.2734275534893185  0.7626209716109368
  0.5046579029848596  0.4619960261550854  0.4895044090266890
 
  0.00000000E+00  0.00000000E+00  0.00000000E+00
  0.00000000E+00  0.00000000E+00  0.00000000E+00
  0.00000000E+00  0.00000000E+00  0.00000000E+00
  0.00000000E+00  0.00000000E+00  0.00000000E+00
  0.00000000E+00  0.00000000E+00  0.00000000E+00
  0.00000000E+00  0.00000000E+00  0.00000000E+00
  0.00000000E+00  0.00000000E+00  0.00000000E+00
  0.00000000E+00  0.00000000E+00  0.00000000E+00
  0.00000000E+00  0.00000000E+00  0.00000000E+00
  0.00000000E+00  0.00000000E+00  0.00000000E+00
  0.00000000E+00  0.00000000E+00  0.00000000E+00
  0.00000000E+00  0.00000000E+00  0.00000000E+00
  0.00000000E+00  0.00000000E+00  0.00000000E+00
  0.00000000E+00  0.00000000E+00  0.00000000E+00
  0.00000000E+00  0.00000000E+00  0.00000000E+00
  0.00000000E+00  0.00000000E+00  0.00000000E+00
