generated by pypospack
   4.98831
  1.385123   0.001565  -0.002948
  0.002276   2.065319   0.000752
 -0.004466   0.000720   2.071240
 Hf Nb Ta Zr
 12 5 10 9
Direct
  0.749145   0.174003   0.157333
  0.251291   0.166312   0.156960
  0.001028   0.993309   0.673698
  0.001777   0.340557   0.326115
  0.225257   0.512073   0.517557
  0.019865   0.666937   0.312600
  0.505513   0.971650   0.000149
  0.507677   0.005414   0.342847
  0.500281   0.667692   0.001010
  0.485110   0.668366   0.317164
  0.515419   0.334681   0.656855
  0.749200   0.828231   0.819192
  0.759610   0.837115   0.182887
  0.006777   0.674141   0.685881
  0.252463   0.832514   0.818743
  0.502301   0.351761   0.992473
  0.756747   0.495736   0.838215
  0.995302   0.347972   0.998639
  0.995434   0.995910   0.334831
  0.261099   0.481540   0.147474
  0.977311   0.333197   0.675707
  0.238815   0.489891   0.832401
  0.243978   0.859062   0.183155
  0.247188   0.832234   0.499857
  0.495520   0.993671   0.661423
  0.740927   0.486916   0.154542
  0.778728   0.161871   0.503443
  0.736156   0.167376   0.841371
  0.993278   0.981770   0.996390
  0.220566   0.162584   0.506753
  0.256741   0.173269   0.837548
  0.002260   0.666200   0.002744
  0.502546   0.335901   0.341510
  0.772814   0.515512   0.502492
  0.495360   0.667333   0.679503
  0.756527   0.827310   0.500539
