generated by pypospack
   4.98831
  1.406922   0.006386   0.004860
  0.009424   2.064107   0.003767
  0.006886   0.003742   2.070355
 Ta Nb Hf Zr
 10 5 9 12
Direct
  0.495452   0.675397   0.009641
  0.009639   0.680682   0.012921
  0.745907   0.839526   0.169535
  0.989544   0.997412   0.324114
  0.253179   0.847141   0.171262
  0.739431   0.145720   0.488525
  0.221653   0.501627   0.503679
  0.045796   0.680189   0.668770
  0.760258   0.508599   0.151328
  0.236875   0.842597   0.484792
  0.505357   0.993174   0.331047
  0.729672   0.152688   0.173008
  0.241692   0.833432   0.844226
  0.534944   0.340804   0.012932
  0.499606   0.982484   0.005420
  0.475370   0.991068   0.662840
  0.280658   0.174323   0.850378
  0.992853   0.999410   0.001647
  0.010368   0.006001   0.672470
  0.006868   0.672135   0.318860
  0.503726   0.339460   0.645432
  0.970698   0.314886   0.002603
  0.762424   0.510772   0.835297
  0.467059   0.669733   0.660491
  0.709145   0.162618   0.837228
  0.517981   0.345891   0.339139
 -0.002631   0.315302   0.668811
  0.247246   0.486305   0.153506
  0.975211   0.332126   0.330076
  0.496707   0.663711   0.332112
  0.255073   0.160643   0.481073
  0.786597   0.522508   0.520602
  0.759190   0.837903   0.501252
  0.252696   0.492350   0.841240
  0.263728   0.162626   0.166044
  0.760013   0.818760   0.827692
