generated by pypospack                  
   4.98831000000000     
     1.4136566543299036    0.0005824215123830    0.0061551888100786
     0.0010662915515990    2.0721333530582768    0.0022785222597490
     0.0091366036690966    0.0022590564425389    2.0636556528289898
   Nb   Ta   Zr   Hf
     4     9     9    14
Direct
  0.0125031631357857  0.3352661324680785  0.6689342460638924
  0.2235921698306214  0.1638566490543822  0.1647158893438059
  0.7526456970850949  0.1884458058733171  0.8195393485269732
  0.2442424737756572  0.1716001292728290  0.8281412380761863
  0.7313363462998881  0.8293415095671527  0.1884062187399328
  0.2244953639905738  0.1784385018971485  0.5071682444188456
  0.0363492210244956  0.3353287222878840  0.3421719153163021
  0.2549151857234446  0.4940436631908465  0.8251863427408828
  0.2682661594723054  0.8236253620032893  0.1571493479670733
  0.4840080964681431  0.3295780054664736  0.6648498097364499
  0.2547839404207899  0.4952088233045313  0.5006280136905911
  0.4914714616991517  0.6631045925747803  0.3199539255237530
  0.4755484780257523  0.6359978802047084  0.6683102866562103
  0.5078129665826403  0.0072684312063379  0.0024652004724898
  0.7486704668224614  0.4956755218389292  0.4963594584290231
  0.9918746512397676 -0.0037147848999423 -0.0005759775675203
  0.0159438847221158  0.3305043015893422  0.9886067957214006
  0.0148248091653986  0.6699396175115142  0.6634312285824024
  0.4815231322835750  0.0078400208835646  0.3275020179267392
  0.2934308250141513  0.8254599181276192  0.5120172500271581
  0.7776482998728632  0.1782521942424204  0.1845480372882493
  0.9797015396254378  0.6800583154676959 -0.0008442387412530
  0.4906842354663756  0.3232976411505498  0.9985241232788692
  0.7678742707576274  0.4947809208507724  0.1814818749937096
  0.2733187409429387  0.8288673899256518  0.8391875209784825
  0.7252341362110737  0.8300135118476906  0.4988500991600470
  0.7452325493371152  0.4902489307539123  0.8209242734182659
  0.2350805200033974  0.5088097193991160  0.1673136721713955
  0.0161222763335721  0.6841833359579753  0.3396006678928115
  0.7702414715424393  0.1790285799449379  0.4998857764019328
  0.4700616356291310  0.3241186482792710  0.3289532131527623
  0.0164008395475022  0.9881383394321641  0.3363602941819475
  0.5204980515255454  0.6612365731073212  0.0106700363196269
  0.4924347806061074  0.0306626858942070  0.6701920020850819
 -0.0007402040583172  0.0002316950590799  0.6727202525169911
  0.7119703638753803  0.8212717152644251  0.8066735945084912
 
  0.00000000E+00  0.00000000E+00  0.00000000E+00
  0.00000000E+00  0.00000000E+00  0.00000000E+00
  0.00000000E+00  0.00000000E+00  0.00000000E+00
  0.00000000E+00  0.00000000E+00  0.00000000E+00
  0.00000000E+00  0.00000000E+00  0.00000000E+00
  0.00000000E+00  0.00000000E+00  0.00000000E+00
  0.00000000E+00  0.00000000E+00  0.00000000E+00
  0.00000000E+00  0.00000000E+00  0.00000000E+00
  0.00000000E+00  0.00000000E+00  0.00000000E+00
  0.00000000E+00  0.00000000E+00  0.00000000E+00
  0.00000000E+00  0.00000000E+00  0.00000000E+00
  0.00000000E+00  0.00000000E+00  0.00000000E+00
  0.00000000E+00  0.00000000E+00  0.00000000E+00
  0.00000000E+00  0.00000000E+00  0.00000000E+00
  0.00000000E+00  0.00000000E+00  0.00000000E+00
  0.00000000E+00  0.00000000E+00  0.00000000E+00
  0.00000000E+00  0.00000000E+00  0.00000000E+00
  0.00000000E+00  0.00000000E+00  0.00000000E+00
  0.00000000E+00  0.00000000E+00  0.00000000E+00
  0.00000000E+00  0.00000000E+00  0.00000000E+00
  0.00000000E+00  0.00000000E+00  0.00000000E+00
  0.00000000E+00  0.00000000E+00  0.00000000E+00
  0.00000000E+00  0.00000000E+00  0.00000000E+00
  0.00000000E+00  0.00000000E+00  0.00000000E+00
  0.00000000E+00  0.00000000E+00  0.00000000E+00
  0.00000000E+00  0.00000000E+00  0.00000000E+00
  0.00000000E+00  0.00000000E+00  0.00000000E+00
  0.00000000E+00  0.00000000E+00  0.00000000E+00
  0.00000000E+00  0.00000000E+00  0.00000000E+00
  0.00000000E+00  0.00000000E+00  0.00000000E+00
  0.00000000E+00  0.00000000E+00  0.00000000E+00
  0.00000000E+00  0.00000000E+00  0.00000000E+00
  0.00000000E+00  0.00000000E+00  0.00000000E+00
  0.00000000E+00  0.00000000E+00  0.00000000E+00
  0.00000000E+00  0.00000000E+00  0.00000000E+00
  0.00000000E+00  0.00000000E+00  0.00000000E+00
