generated by pypospack                  
   4.98831000000000     
     1.4112776705982828    0.0026091882856950    0.0021969176836340
     0.0038968876236572    2.0572895997600535    0.0025956433947766
     0.0031133363942104    0.0025584940899115    2.0592199448710300
   Ta   Zr   Hf   Nb
    10    11    10     5
Direct
  0.7376784386366415  0.8347031310003714  0.1574927878422927
  0.9835464526946671  0.9852077010912828  0.3163008723961424
  0.2600609248162826  0.8466476203133269  0.1657783227587914
  0.7844136085973444  0.1541140506283936  0.4877470543350271
  0.4920731064578496  0.6759673712503041  0.0085116590553062
  0.4646378427293848  0.6774943442592024  0.6610048932851090
  0.2413208161311767  0.5137229797464606  0.5140184845064815
  0.0318218500668397  0.6814634347079928  0.6743423620110923
  0.7270202237494131  0.5043282273791280  0.1533211185272108
  0.2375390972064636  0.8324841068497507  0.4976685445805188
  0.5146276901669945  0.3327913944049362  0.3431103928123243
  0.9929409210332484  0.3246952720306897  0.6745744379621453
  0.2756636580079259  0.4841811339239532  0.1528694960554656
  0.9855322612114950  0.3482972886352406  0.3273299953720260
  0.4919543412798472  0.6676492659112884  0.3334930372176834
  0.2119356610778579  0.1554949388540012  0.4839233753092216
  0.0059011821334625  0.6703494270896659  0.0089503104513311
  0.7583909262097767  0.5201357276349393  0.5222777881231002
  0.7606354219832427  0.8292647619026421  0.5094341587929886
  0.2596879695785447  0.4962793138705600  0.8330625209941939
  0.2555814600600150  0.1621389486157211  0.1623779218454757
  0.4941830583331450  0.0062387683929744  0.6547799179711359
  0.2824823675299093  0.1730244390566626  0.8499365956534699
  0.9927976217365482  0.9988900422629197  0.9973958546331789
  0.0052580270790427  0.9990927388768662  0.6845328709003152
  0.0055464617131430  0.6676897188993089  0.3236575727676792
  0.5121424977612919  0.9967132405067578  0.3354845122816090
  0.5061567721539014  0.3215983278516534  0.6504111648426648
  0.9733194800056816  0.3269857911361550  0.9975727789775011
  0.7316827630206585  0.8239641385519800  0.8312063113480106
  0.7385120199714601  0.5139231399220832  0.8314141605344952
  0.7469714336476277  0.1587831070760422  0.1679998531444469
  0.7212570608485593  0.1616201952378404  0.8410628496768726
  0.2678742713581104  0.8317047100546431  0.8372924734726686
  0.5377888313186235  0.3276900330288541  0.0034865028174133
  0.5110504796938350  0.9946771690454206  0.0061730467446204
 
  0.00000000E+00  0.00000000E+00  0.00000000E+00
  0.00000000E+00  0.00000000E+00  0.00000000E+00
  0.00000000E+00  0.00000000E+00  0.00000000E+00
  0.00000000E+00  0.00000000E+00  0.00000000E+00
  0.00000000E+00  0.00000000E+00  0.00000000E+00
  0.00000000E+00  0.00000000E+00  0.00000000E+00
  0.00000000E+00  0.00000000E+00  0.00000000E+00
  0.00000000E+00  0.00000000E+00  0.00000000E+00
  0.00000000E+00  0.00000000E+00  0.00000000E+00
  0.00000000E+00  0.00000000E+00  0.00000000E+00
  0.00000000E+00  0.00000000E+00  0.00000000E+00
  0.00000000E+00  0.00000000E+00  0.00000000E+00
  0.00000000E+00  0.00000000E+00  0.00000000E+00
  0.00000000E+00  0.00000000E+00  0.00000000E+00
  0.00000000E+00  0.00000000E+00  0.00000000E+00
  0.00000000E+00  0.00000000E+00  0.00000000E+00
  0.00000000E+00  0.00000000E+00  0.00000000E+00
  0.00000000E+00  0.00000000E+00  0.00000000E+00
  0.00000000E+00  0.00000000E+00  0.00000000E+00
  0.00000000E+00  0.00000000E+00  0.00000000E+00
  0.00000000E+00  0.00000000E+00  0.00000000E+00
  0.00000000E+00  0.00000000E+00  0.00000000E+00
  0.00000000E+00  0.00000000E+00  0.00000000E+00
  0.00000000E+00  0.00000000E+00  0.00000000E+00
  0.00000000E+00  0.00000000E+00  0.00000000E+00
  0.00000000E+00  0.00000000E+00  0.00000000E+00
  0.00000000E+00  0.00000000E+00  0.00000000E+00
  0.00000000E+00  0.00000000E+00  0.00000000E+00
  0.00000000E+00  0.00000000E+00  0.00000000E+00
  0.00000000E+00  0.00000000E+00  0.00000000E+00
  0.00000000E+00  0.00000000E+00  0.00000000E+00
  0.00000000E+00  0.00000000E+00  0.00000000E+00
  0.00000000E+00  0.00000000E+00  0.00000000E+00
  0.00000000E+00  0.00000000E+00  0.00000000E+00
  0.00000000E+00  0.00000000E+00  0.00000000E+00
  0.00000000E+00  0.00000000E+00  0.00000000E+00
