generated by pypospack
   4.98831
  1.411164   0.003576   0.001814
  0.005299   2.060104   0.002950
  0.002555   0.002920   2.059458
 Ta Zr Hf Nb
 10 11 10 5
Direct
  0.737727   0.834419   0.157324
  0.983009   0.985740   0.316823
  0.259813   0.846752   0.166606
  0.784602   0.154867   0.487040
  0.491790   0.675805   0.008191
  0.464732   0.673391   0.660220
  0.235994   0.513158   0.514088
  0.032938   0.684052   0.674437
  0.726407   0.504685   0.153379
  0.238629   0.832621   0.496743
  0.514632   0.332698   0.343318
  0.992085   0.321504   0.675507
  0.275744   0.484174   0.152780
  0.985781   0.347704   0.326338
  0.491791   0.667495   0.333852
  0.213029   0.155170   0.483928
  0.005871   0.671077   0.009355
  0.765571   0.519765   0.521343
  0.759285   0.829166   0.509656
  0.257677   0.496113   0.833619
  0.255595   0.162073   0.162662
  0.495309   0.006882   0.655296
  0.282183   0.173721   0.850434
  0.992937   0.998679   0.997229
  0.004562  -0.001166   0.684029
  0.005829   0.668034   0.322871
  0.513320  -0.003766   0.334189
  0.505686   0.326279   0.651121
  0.972918   0.326817   0.998220
  0.730941   0.823183   0.831008
  0.739366   0.514062   0.831708
  0.746869   0.159159   0.168072
  0.720685   0.162188   0.841374
  0.268720   0.831166   0.837194
  0.537457   0.327936   0.003345
  0.510503   0.994403   0.006697
