AuPt
       1.0
  8.054612   0.011089  -0.016224
  0.011414   8.016390  -0.007844
 -0.016559  -0.007716   8.072483
 Au Pt
 12 20
Direct
  0.001477   0.249418   0.252884
  0.251385   0.750714   0.498484
  0.000077   0.248861   0.749448
  0.499441   0.501312   0.499506
 -0.000574  -0.000396   0.499235
  0.750254   0.750581   0.500892
  0.250603   0.001445   0.750987
  0.748271   0.249063   0.001213
  0.501248   0.250869   0.249311
  0.748431   0.499345   0.748568
  0.001625   0.498792   0.000599
  0.749300   0.749369   0.000126
  0.002716   0.749775   0.752978
  0.003427   0.498127   0.497130
  0.251583   0.249719   0.001703
  0.498831   0.751654   0.244775
  0.247637   0.500795   0.248701
  0.251308   0.251946   0.496718
  0.745203  -0.000248   0.750788
  0.754250   0.500564   0.253750
  0.750516   0.248414   0.498464
  0.000964  -0.002044   0.004662
  0.497658   0.248220   0.749343
  0.498406  -0.001211   0.000705
  0.503337   0.002943   0.499481
  0.491959   0.501796  -0.000762
  0.250310   0.001140   0.245386
  0.250090   0.749902   0.001823
  0.496432   0.752242   0.754216
  0.001719   0.750256   0.248287
  0.750569   0.997596   0.249380
  0.251545   0.499035   0.751220
