generated by pypospack                  
   4.98831000000000     
     1.3572581594579702   -0.0035249097612701   -0.0020841575380034
    -0.0050418460791413    2.0231016899092991   -0.0017678500466011
    -0.0030674016892736   -0.0018264525782344    2.0386966353673026
   Zr   Ta   Nb   Hf
     5    16     9     6
Direct
  0.2430309615990913  0.8413431293804421  0.8323232817690052
  0.7512276398664269  0.4905818722865009  0.1773317298203427
  0.0201063681235976  0.3340015006131842  0.9935784280507254
  0.5079426809491969  0.6625232824976508  0.9935905016211672
  0.2538346493324430  0.1622512688119534  0.1738469840937281
  0.5213560803287040  0.9956286677155187  0.0048836938924877
  0.2450347590512383  0.8377569644259351  0.4963182599303638
  0.7569648263893987  0.8360016918347000  0.4967807485518276
  0.2447621347444140  0.5082338834144011  0.1794698233652698
  0.9859011786496097  0.6699800679485175  0.0027210983291035
  0.7531239638518591  0.5011176585924624  0.4918278120485209
  0.7503220266516812  0.8367188654618746  0.1736454065633328
  0.9804200972623303  0.9963893752630973  0.0068558730804540
  0.7720749906873295  0.5016225888464630  0.8252098202411691
  0.9982943602748225  0.6677810507536590  0.3389768974034054
  0.2535698632239107  0.1582179220607403  0.4930739493901273
  0.2581551604967420  0.1426802538240552  0.8308942724555807
  0.5040909089990484  0.9950649702321280  0.6575140385167578
  0.4990969694116325  0.3302149611671701  0.3466193643003094
  0.7484962272686989  0.1634702935353880  0.1728457405022161
  0.7500668987331495  0.1611850526403257  0.4975435657213387
  0.4982786770279711  0.6647537630425188  0.3436541568053911
  0.7571212809502966  0.8402254775741821  0.8301228204719969
  0.2459522417668417  0.5044317442330134  0.4888711759377891
  0.5086722227706791  0.0003274416251270  0.3385076338458192
  0.9943471197771621  0.9979456969515510  0.3353947983415124
 -0.0009626079349701  0.0045666418035327  0.6594820872310293
  0.9953651974784906  0.6663902413238011  0.6599826925191870
  0.0028143105461775  0.3320123477461547  0.3444266673278264
  0.2189839181551535  0.5248856707887611  0.8314105945818818
  0.2510367359893648  0.8293767090711550  0.1716833600085220
  0.4881981545742833  0.3392565514823093  0.6648940448326760
  0.0132420023899086  0.3316877401348410  0.6613575380752308
  0.7440264230767872  0.1623519809099473  0.8319451712531067
  0.5036160151440221  0.6689235858757656  0.6625538210424338
  0.4814355623925062  0.3401110861311838  0.9898631480783834
 
  0.00000000E+00  0.00000000E+00  0.00000000E+00
  0.00000000E+00  0.00000000E+00  0.00000000E+00
  0.00000000E+00  0.00000000E+00  0.00000000E+00
  0.00000000E+00  0.00000000E+00  0.00000000E+00
  0.00000000E+00  0.00000000E+00  0.00000000E+00
  0.00000000E+00  0.00000000E+00  0.00000000E+00
  0.00000000E+00  0.00000000E+00  0.00000000E+00
  0.00000000E+00  0.00000000E+00  0.00000000E+00
  0.00000000E+00  0.00000000E+00  0.00000000E+00
  0.00000000E+00  0.00000000E+00  0.00000000E+00
  0.00000000E+00  0.00000000E+00  0.00000000E+00
  0.00000000E+00  0.00000000E+00  0.00000000E+00
  0.00000000E+00  0.00000000E+00  0.00000000E+00
  0.00000000E+00  0.00000000E+00  0.00000000E+00
  0.00000000E+00  0.00000000E+00  0.00000000E+00
  0.00000000E+00  0.00000000E+00  0.00000000E+00
  0.00000000E+00  0.00000000E+00  0.00000000E+00
  0.00000000E+00  0.00000000E+00  0.00000000E+00
  0.00000000E+00  0.00000000E+00  0.00000000E+00
  0.00000000E+00  0.00000000E+00  0.00000000E+00
  0.00000000E+00  0.00000000E+00  0.00000000E+00
  0.00000000E+00  0.00000000E+00  0.00000000E+00
  0.00000000E+00  0.00000000E+00  0.00000000E+00
  0.00000000E+00  0.00000000E+00  0.00000000E+00
  0.00000000E+00  0.00000000E+00  0.00000000E+00
  0.00000000E+00  0.00000000E+00  0.00000000E+00
  0.00000000E+00  0.00000000E+00  0.00000000E+00
  0.00000000E+00  0.00000000E+00  0.00000000E+00
  0.00000000E+00  0.00000000E+00  0.00000000E+00
  0.00000000E+00  0.00000000E+00  0.00000000E+00
  0.00000000E+00  0.00000000E+00  0.00000000E+00
  0.00000000E+00  0.00000000E+00  0.00000000E+00
  0.00000000E+00  0.00000000E+00  0.00000000E+00
  0.00000000E+00  0.00000000E+00  0.00000000E+00
  0.00000000E+00  0.00000000E+00  0.00000000E+00
  0.00000000E+00  0.00000000E+00  0.00000000E+00
