generated by pypospack                  
   4.98831000000000     
     1.3810332364205276    0.0009964104143351   -0.0006864261631397
     0.0015476715047059    2.0536716893195694    0.0023989652973748
    -0.0009657523601161    0.0023236811213155    2.0496217251643367
   Ta   Hf   Nb   Zr
    12     9     7     8
Direct
  0.2535102257988681  0.1652972239261462  0.5064151912909689
  0.2470202171450525  0.1829348489743825  0.1786751487755679
  0.0162990860097455  0.3269633303277813  0.3397506397661909
  0.0073213939153654  0.3382319034941192  0.6660085529204300
  0.2342435167463180  0.4851325536545757  0.8336364285062248
  0.2545756402929281  0.8600465576270266  0.5169822430206458
  0.4829493749973079  0.3243877834304849  0.3354161332275843
  0.7653500904001250  0.4938484113535018  0.8162171974848857
  0.7486787137499593  0.8484388853238378  0.5166260795067044
  0.2441641514363045  0.8446076584032202  0.8351345120890644
  0.2369450175872501  0.8165819740319700  0.1426675248802843
  0.4925698905925244  0.3419951725796886  0.6717799733928623
  0.2528435359254460  0.1645089997024044  0.8229088167345403
  0.2464727398199190  0.4991150216353169  0.1657668594389738
  0.0156765951334009  0.6792570062265353  0.3451456984065117
  0.5044154152476769  0.0034346947177094  0.0110352568213295
  0.7472498872044124  0.1677707789552542  0.5055618736620997
  0.5104143851549963  0.3262401530346158  0.9972250575894878
  0.7444574633084726  0.4899337877345614  0.4989815017199358
  0.4882924683411679  0.6846889603962185  0.3415422327555724
  0.4882161401972728  0.6622169259285944  0.6649658593147950
  0.0024893297555175  0.0005340502057647  0.6676526429877372
  0.2590855354169888  0.4846383380371558  0.4945056588968501
  0.0029590421705001  0.6645672498532701  0.9894456615843092
  0.7505729923943510  0.1809111787077361  0.1933859095050080
  0.5000508733870663  0.9988955751707927  0.6687145715429185
  0.7440621013512484  0.1669968490324994  0.8135552810365112
  0.7634458827923517  0.8094278375790236  0.1560275721875689
  0.9890028551510998  0.0056782875839907  0.0086297709488521
  0.0018536519831829  0.9964955927939225  0.3284162196877163
  0.9840617908934400  0.3234881905800364  0.9996754823055773
  0.0155241774189147  0.6643935630138283  0.6578734394463854
  0.4990591632555137  0.9963668040343076  0.3252131757637148
  0.7521938700255575  0.5052484043645685  0.1742839776062852
  0.4973230502748326  0.6626304868856492  0.9846932530796516
  0.7566397347249247  0.8340999606995179  0.8254796021162534
 
  0.00000000E+00  0.00000000E+00  0.00000000E+00
  0.00000000E+00  0.00000000E+00  0.00000000E+00
  0.00000000E+00  0.00000000E+00  0.00000000E+00
  0.00000000E+00  0.00000000E+00  0.00000000E+00
  0.00000000E+00  0.00000000E+00  0.00000000E+00
  0.00000000E+00  0.00000000E+00  0.00000000E+00
  0.00000000E+00  0.00000000E+00  0.00000000E+00
  0.00000000E+00  0.00000000E+00  0.00000000E+00
  0.00000000E+00  0.00000000E+00  0.00000000E+00
  0.00000000E+00  0.00000000E+00  0.00000000E+00
  0.00000000E+00  0.00000000E+00  0.00000000E+00
  0.00000000E+00  0.00000000E+00  0.00000000E+00
  0.00000000E+00  0.00000000E+00  0.00000000E+00
  0.00000000E+00  0.00000000E+00  0.00000000E+00
  0.00000000E+00  0.00000000E+00  0.00000000E+00
  0.00000000E+00  0.00000000E+00  0.00000000E+00
  0.00000000E+00  0.00000000E+00  0.00000000E+00
  0.00000000E+00  0.00000000E+00  0.00000000E+00
  0.00000000E+00  0.00000000E+00  0.00000000E+00
  0.00000000E+00  0.00000000E+00  0.00000000E+00
  0.00000000E+00  0.00000000E+00  0.00000000E+00
  0.00000000E+00  0.00000000E+00  0.00000000E+00
  0.00000000E+00  0.00000000E+00  0.00000000E+00
  0.00000000E+00  0.00000000E+00  0.00000000E+00
  0.00000000E+00  0.00000000E+00  0.00000000E+00
  0.00000000E+00  0.00000000E+00  0.00000000E+00
  0.00000000E+00  0.00000000E+00  0.00000000E+00
  0.00000000E+00  0.00000000E+00  0.00000000E+00
  0.00000000E+00  0.00000000E+00  0.00000000E+00
  0.00000000E+00  0.00000000E+00  0.00000000E+00
  0.00000000E+00  0.00000000E+00  0.00000000E+00
  0.00000000E+00  0.00000000E+00  0.00000000E+00
  0.00000000E+00  0.00000000E+00  0.00000000E+00
  0.00000000E+00  0.00000000E+00  0.00000000E+00
  0.00000000E+00  0.00000000E+00  0.00000000E+00
  0.00000000E+00  0.00000000E+00  0.00000000E+00
