generated by pypospack
   4.98831
  1.377095  -0.000433  -0.000064
 -0.000632   2.057983  -0.005465
 -0.000059  -0.005410   2.062002
 Ta Hf Zr Nb
 9 9 8 10
Direct
  0.991382   0.333323   0.358683
  0.240852   0.508172   0.499364
  0.237039   0.525039   0.823452
  0.008275   0.682969   0.003809
  0.226843   0.831749   0.191597
  0.505052   0.341212   0.352977
  0.753891   0.505632   0.501127
  0.770680   0.830670   0.182128
  0.010426   0.983795   0.005659
  0.471524   0.343435   0.984028
  0.252730   0.173050   0.183600
  0.004534   0.330482   0.658167
  0.242528   0.833747   0.500661
  0.750098   0.176291   0.167836
  0.743286   0.159525   0.836991
  0.761171   0.508471   0.839045
  0.503183   0.662052   0.332975
  0.762060   0.491664   0.164526
  0.273391   0.137763   0.819547
  0.034940   0.328348   0.977525
  0.232765   0.493445   0.176484
  0.495220   0.978789   0.021088
  0.495931   0.337186   0.660916
  0.490606   0.674991   0.008301
  0.754540   0.833995   0.503897
  0.749835   0.835293   0.820110
  0.504474   0.997714   0.330366
  0.994209   0.004807   0.331794
  0.251819   0.161588   0.489438
  0.001304   0.012895   0.658141
  0.991794   0.663461   0.335165
  0.005140   0.661957   0.667717
  0.246361   0.828420   0.814923
  0.748709   0.162250   0.490322
  0.503899   0.006318   0.644556
  0.489511   0.659504   0.663083
