generated by pypospack                  
   4.98831000000000     
     1.3823395449164653    0.0001904094527263   -0.0015215691304024
     0.0003056194536663    2.0591008016022019   -0.0052580470059391
    -0.0022473686326291   -0.0052172008250751    2.0572075496347151
   Hf   Nb   Ta   Zr
     9     9     9     9
Direct
  0.0136590478181420  0.9889140724143952  0.0002066438334866
  0.2416559276439395  0.1755251707590060  0.1840543096486147
  0.0072283080048497  0.3318047849783409  0.6603762284765312
  0.2378141254321111  0.8319600580894324  0.5022250360414324
  0.7565328723496995  0.1823586938307464  0.1674556149044413
  0.5055810034823078  0.9923609288256550  0.3285595732745706
  0.7391481896900125  0.1565149412528306  0.8318396443649255
  0.7545152067528196  0.5122816038073855  0.8286957459990297
  0.5067513677082565  0.6670320318640153  0.3294654526807200
  0.9910572231580295  0.0045925749587868  0.3342598696440995
  0.2471737855202437  0.1626105778991155  0.4896896647270506
  0.0086971633512861  0.0121541528166413  0.6639994770715485
  0.9879440147220859  0.6571048609764297  0.3357564531788098
  0.0077190068434496  0.6609200188017290  0.6689783854047705
  0.2441323533782870  0.8269214904773322  0.8179597579468159
  0.7535609903257896  0.1625056144318957  0.4930059327512537
  0.4999784979858113  0.0080018752003472  0.6416577475444231
  0.4869975613190333  0.6593277982983815  0.6616438569931418
  0.9848910661468762  0.3370623163484753  0.3571976490838720
  0.2435247338563768  0.5079142166211976  0.4971925025554768
  0.2423754009132226  0.5228383461182302  0.8244645558553333
  0.0030135228804253  0.6705162675171623  0.0011096985966825
  0.2105217054638306  0.8244455635148222  0.1848667042574137
  0.7598509658161047  0.4928685756669810  0.1733375591334297
  0.5110486003619528  0.3415594295697159  0.3475682460804282
  0.7511019920869559  0.5071446164522581  0.5021893918325830
  0.7856936160657056  0.8224875978904126  0.1725094907695638
  0.2814752027555337  0.1461016220274375  0.8239068833355648
  0.0214288557176803  0.3374554307790315  0.9821444342429257
  0.2344130398272313  0.4951832767165543  0.1800109837289910
  0.4946409990167447  0.9784977198331026  0.0200324848229831
  0.4838731358258452  0.3462343340005236  0.9958348408651295
  0.4957144145015038  0.3369080408219283  0.6573755766260161
  0.4952482397909529  0.6715622113795107  0.0099210681877982
  0.7603497228623664  0.8332663507786037  0.5080954714029885
  0.7506881406245511  0.8350628342815930  0.8224130641371405
 
  0.00000000E+00  0.00000000E+00  0.00000000E+00
  0.00000000E+00  0.00000000E+00  0.00000000E+00
  0.00000000E+00  0.00000000E+00  0.00000000E+00
  0.00000000E+00  0.00000000E+00  0.00000000E+00
  0.00000000E+00  0.00000000E+00  0.00000000E+00
  0.00000000E+00  0.00000000E+00  0.00000000E+00
  0.00000000E+00  0.00000000E+00  0.00000000E+00
  0.00000000E+00  0.00000000E+00  0.00000000E+00
  0.00000000E+00  0.00000000E+00  0.00000000E+00
  0.00000000E+00  0.00000000E+00  0.00000000E+00
  0.00000000E+00  0.00000000E+00  0.00000000E+00
  0.00000000E+00  0.00000000E+00  0.00000000E+00
  0.00000000E+00  0.00000000E+00  0.00000000E+00
  0.00000000E+00  0.00000000E+00  0.00000000E+00
  0.00000000E+00  0.00000000E+00  0.00000000E+00
  0.00000000E+00  0.00000000E+00  0.00000000E+00
  0.00000000E+00  0.00000000E+00  0.00000000E+00
  0.00000000E+00  0.00000000E+00  0.00000000E+00
  0.00000000E+00  0.00000000E+00  0.00000000E+00
  0.00000000E+00  0.00000000E+00  0.00000000E+00
  0.00000000E+00  0.00000000E+00  0.00000000E+00
  0.00000000E+00  0.00000000E+00  0.00000000E+00
  0.00000000E+00  0.00000000E+00  0.00000000E+00
  0.00000000E+00  0.00000000E+00  0.00000000E+00
  0.00000000E+00  0.00000000E+00  0.00000000E+00
  0.00000000E+00  0.00000000E+00  0.00000000E+00
  0.00000000E+00  0.00000000E+00  0.00000000E+00
  0.00000000E+00  0.00000000E+00  0.00000000E+00
  0.00000000E+00  0.00000000E+00  0.00000000E+00
  0.00000000E+00  0.00000000E+00  0.00000000E+00
  0.00000000E+00  0.00000000E+00  0.00000000E+00
  0.00000000E+00  0.00000000E+00  0.00000000E+00
  0.00000000E+00  0.00000000E+00  0.00000000E+00
  0.00000000E+00  0.00000000E+00  0.00000000E+00
  0.00000000E+00  0.00000000E+00  0.00000000E+00
  0.00000000E+00  0.00000000E+00  0.00000000E+00
