generated by pypospack
   4.94975
  1.650698   0.001173   0.001668
  0.001185   1.637864  -0.004135
  0.001692  -0.004166   1.623576
 Au Pt
 15 17
Direct
  0.999891   0.999481   0.999176
  0.253171   0.251325   0.999749
  0.000942   0.249836   0.250533
  0.251452   0.250526   0.501079
  0.251286   0.998950   0.749619
  0.999311   0.251200   0.751445
  0.250090   0.500390   0.250267
  0.000215   0.749326   0.249010
  0.500666   0.000066   0.999101
  0.748748   0.000584   0.250670
  0.751480   0.249942   0.500240
  0.499219   0.500288   0.999226
  0.747850   0.748809   0.999003
  0.748656   0.748857   0.500058
  0.749220   0.500605   0.749912
  0.256603   0.997233   0.252264
  0.999818   0.996743   0.503496
  0.999519   0.501728   0.998805
  0.249855   0.748123   0.998513
  0.999460   0.502610   0.502144
  0.249219   0.506717   0.750450
  0.001676   0.748377   0.751720
  0.747827   0.252893   0.000332
  0.503466   0.250939   0.253616
  0.500674   0.999941   0.499844
  0.746867   0.999714   0.747569
  0.503452   0.249640   0.745610
  0.747761   0.495796   0.249182
  0.496510   0.750169   0.252247
  0.499772   0.499793   0.499564
  0.496282   0.749054   0.745653
  0.249041   0.750341   0.499905
