generated by pypospack                  
   4.98831000000000     
     1.3999294462813718   -0.0001861613590002    0.0094022238973467
    -0.0002955083065574    2.0564282283467246    0.0025113008503384
     0.0138132226423057    0.0023142989302945    2.0472359626857224
   Nb   Hf   Zr   Ta
    10     9    10     7
Direct
  0.9922832115437947  0.9815879488534822  0.3225057676551048
  0.4982138055896278  0.9870102973860064  0.3438834020750088
  0.7416044779224227  0.8318536892738719  0.1822605896083495
  0.5142282373686122  0.3456350508333957  0.3446303991911811
  0.2663271316566070  0.5034390101217432  0.8401099382201149
  0.9752801142149349  0.3539751166489996  0.3210446458994453
  0.0175163194690321  0.3402503505187632  0.6801383956324494
  0.2499849765910858  0.8335290182526419  0.4875021403323171
  0.4833411504908572  0.3301771401033946  0.9911315020297807
  0.2352675512290696  0.1715055292836270  0.8301188355460577
  0.2259533325936930  0.1687183884710424  0.4872581118463041
  0.2665051396606878  0.5060604421851665  0.1677169158565583
  0.0076543331102705  0.3379730982105020  0.9984981275916969
  0.9757590103285236  0.6629091986628446  0.0075038997101272
  0.2621344137221370  0.8232898188823267  0.1691549249937122
  0.4675407495804307  0.0041762002855493  0.6594576722352651
  0.7560739325499215  0.8335764510075617  0.5052582478992814
  0.0314711695300893  0.6654274444642770  0.6636427873752856
  0.2737308062042224  0.8169350788807143  0.8480296470744083
  0.2486183959013940  0.1722086139796102  0.1847280254740642
  0.9962190394433387  0.0002266944398255  0.0048446874228255
  0.7660269377753369  0.1627114403388571  0.5002228419753831
  0.7613381184019675  0.1690057875355365  0.8219451620932441
  0.5004667067190747  0.0104204460000021  0.9996075105812050
  0.7319937760082319  0.1768417054952992  0.1760373637382271
  0.7411507293935886  0.4965122065085140  0.8247915513607148
  0.4838546273993237  0.3306843014978316  0.6628803989978628
  0.7452751533881208  0.8336897764369556  0.8167185119696878
  0.2421175514911854  0.4928241909487985  0.4846446300194587
  0.7317582225598412  0.4981457940377369  0.1737815517631817
  0.5391328789677485  0.6646237269731110  0.0103198143353071
  0.0357353635625300  0.9922978118975586  0.6719102066724986
  0.5166980781734332  0.6687895624526506  0.3396129667934909
  0.7521529082441460  0.5072517457713994  0.4970116006341595
  0.9839744522785725  0.6671828837940353  0.3291670824057724
  0.4826161969361498  0.6585640395663771  0.6519271429904551
 
  0.00000000E+00  0.00000000E+00  0.00000000E+00
  0.00000000E+00  0.00000000E+00  0.00000000E+00
  0.00000000E+00  0.00000000E+00  0.00000000E+00
  0.00000000E+00  0.00000000E+00  0.00000000E+00
  0.00000000E+00  0.00000000E+00  0.00000000E+00
  0.00000000E+00  0.00000000E+00  0.00000000E+00
  0.00000000E+00  0.00000000E+00  0.00000000E+00
  0.00000000E+00  0.00000000E+00  0.00000000E+00
  0.00000000E+00  0.00000000E+00  0.00000000E+00
  0.00000000E+00  0.00000000E+00  0.00000000E+00
  0.00000000E+00  0.00000000E+00  0.00000000E+00
  0.00000000E+00  0.00000000E+00  0.00000000E+00
  0.00000000E+00  0.00000000E+00  0.00000000E+00
  0.00000000E+00  0.00000000E+00  0.00000000E+00
  0.00000000E+00  0.00000000E+00  0.00000000E+00
  0.00000000E+00  0.00000000E+00  0.00000000E+00
  0.00000000E+00  0.00000000E+00  0.00000000E+00
  0.00000000E+00  0.00000000E+00  0.00000000E+00
  0.00000000E+00  0.00000000E+00  0.00000000E+00
  0.00000000E+00  0.00000000E+00  0.00000000E+00
  0.00000000E+00  0.00000000E+00  0.00000000E+00
  0.00000000E+00  0.00000000E+00  0.00000000E+00
  0.00000000E+00  0.00000000E+00  0.00000000E+00
  0.00000000E+00  0.00000000E+00  0.00000000E+00
  0.00000000E+00  0.00000000E+00  0.00000000E+00
  0.00000000E+00  0.00000000E+00  0.00000000E+00
  0.00000000E+00  0.00000000E+00  0.00000000E+00
  0.00000000E+00  0.00000000E+00  0.00000000E+00
  0.00000000E+00  0.00000000E+00  0.00000000E+00
  0.00000000E+00  0.00000000E+00  0.00000000E+00
  0.00000000E+00  0.00000000E+00  0.00000000E+00
  0.00000000E+00  0.00000000E+00  0.00000000E+00
  0.00000000E+00  0.00000000E+00  0.00000000E+00
  0.00000000E+00  0.00000000E+00  0.00000000E+00
  0.00000000E+00  0.00000000E+00  0.00000000E+00
  0.00000000E+00  0.00000000E+00  0.00000000E+00
