generated by pypospack                  
   4.98831000000000     
     1.3784605114861224   -0.0037179491616682   -0.0027142101758265
    -0.0052933007644940    2.0416281458544403    0.0022822155787956
    -0.0040252293172260    0.0022381896761876    2.0420518738964675
   Zr   Hf   Ta   Nb
     8     7    11    10
Direct
  0.7686140729023420  0.8333114785795919  0.8385536493043182
  0.7596023459331823  0.8355305990642778  0.1686649723071723
  0.4898662792035736  0.3388660453862850  0.0007058761048235
  0.2289503926364247  0.8424380017217430  0.8423415116744339
  0.7440297245209506  0.5129850022415653  0.1715679804480031
  0.0028629604777803  0.3307494816609879  0.9977302767205110
  0.4892157780916897  0.6586262390899413  0.9859269343498800
  0.2589860284674138  0.1569078087909389  0.1761786549754758
  0.0108972157440404  0.6603222951676424  0.3546406353491083
  0.2476064587609186  0.8340849930007459  0.1700846750095801
  0.0081639265523261  0.3283908311908626  0.6585520469901759
  0.7240559123483877  0.1680945625603946  0.8250585809523518
  0.4941486848617447  0.6719181856428300  0.6658879601808789
  0.0024931016800730  0.0097574566607760  0.6518895002356925
  0.9963882220168842  0.3352875113111728  0.3431359215927394
  0.5089070278372402  0.0041548740366488  0.0023528510549280
  0.2618976992124516  0.8420656593725140  0.4899336549976112
  0.7418786056493157  0.8364162792960125  0.4950555335528697
  0.2584712379322140  0.5088999015787660  0.1751032603037639
  0.7367249409398855  0.4965661317853419  0.5103521525788950
  0.9923673645821447  0.0276519506095479  0.0017422227218392
  0.7568905185924312  0.4958370678719931  0.8166782283907639
  0.2711801979866376  0.1636936120800261  0.4920816907542040
  0.2696875391310052  0.1534518359086396  0.8296666040207306
  0.4956669228148992  0.9897267750152209  0.6577738757125550
  0.5063994862606404  0.3343316513326239  0.3363648129006573
  0.0118188881553510  0.6458004274014532  0.9956187283411317
  0.4956490142240050  0.6645614187301121  0.3466568878704856
  0.2665082368611988  0.4921435597761025  0.5009731186478678
  0.5110868972283987  0.0013503858851549  0.3378010121939250
  0.9961542803580188  0.0009107342040283  0.3455361006396566
  0.0003053182262815  0.6600207005197559  0.6578671482742652
  0.2324982509454278  0.5037993329478000  0.8261109787027558
  0.4868696753704992  0.3376824047083528  0.6624731789391933
  0.7416155340748372  0.1591712653582992  0.1701710915261435
  0.7315382594193787  0.1645025395118205  0.4987676916805985
 
  0.00000000E+00  0.00000000E+00  0.00000000E+00
  0.00000000E+00  0.00000000E+00  0.00000000E+00
  0.00000000E+00  0.00000000E+00  0.00000000E+00
  0.00000000E+00  0.00000000E+00  0.00000000E+00
  0.00000000E+00  0.00000000E+00  0.00000000E+00
  0.00000000E+00  0.00000000E+00  0.00000000E+00
  0.00000000E+00  0.00000000E+00  0.00000000E+00
  0.00000000E+00  0.00000000E+00  0.00000000E+00
  0.00000000E+00  0.00000000E+00  0.00000000E+00
  0.00000000E+00  0.00000000E+00  0.00000000E+00
  0.00000000E+00  0.00000000E+00  0.00000000E+00
  0.00000000E+00  0.00000000E+00  0.00000000E+00
  0.00000000E+00  0.00000000E+00  0.00000000E+00
  0.00000000E+00  0.00000000E+00  0.00000000E+00
  0.00000000E+00  0.00000000E+00  0.00000000E+00
  0.00000000E+00  0.00000000E+00  0.00000000E+00
  0.00000000E+00  0.00000000E+00  0.00000000E+00
  0.00000000E+00  0.00000000E+00  0.00000000E+00
  0.00000000E+00  0.00000000E+00  0.00000000E+00
  0.00000000E+00  0.00000000E+00  0.00000000E+00
  0.00000000E+00  0.00000000E+00  0.00000000E+00
  0.00000000E+00  0.00000000E+00  0.00000000E+00
  0.00000000E+00  0.00000000E+00  0.00000000E+00
  0.00000000E+00  0.00000000E+00  0.00000000E+00
  0.00000000E+00  0.00000000E+00  0.00000000E+00
  0.00000000E+00  0.00000000E+00  0.00000000E+00
  0.00000000E+00  0.00000000E+00  0.00000000E+00
  0.00000000E+00  0.00000000E+00  0.00000000E+00
  0.00000000E+00  0.00000000E+00  0.00000000E+00
  0.00000000E+00  0.00000000E+00  0.00000000E+00
  0.00000000E+00  0.00000000E+00  0.00000000E+00
  0.00000000E+00  0.00000000E+00  0.00000000E+00
  0.00000000E+00  0.00000000E+00  0.00000000E+00
  0.00000000E+00  0.00000000E+00  0.00000000E+00
  0.00000000E+00  0.00000000E+00  0.00000000E+00
  0.00000000E+00  0.00000000E+00  0.00000000E+00
