generated by pypospack
   4.98831
  1.378188  -0.003122  -0.003306
 -0.004414   2.040638   0.002368
 -0.004897   0.002317   2.043628
 Zr Hf Ta Nb
 8 7 11 10
Direct
  0.768423   0.833428   0.838394
  0.759187   0.835708   0.168493
  0.490409   0.339088   0.000643
  0.229399   0.842405   0.842493
  0.744367   0.512283   0.171751
  0.002931   0.330816   0.997460
  0.489529   0.658568   0.986665
  0.259104   0.156895   0.175400
  0.009592   0.660753   0.352455
  0.248115   0.834735   0.169841
  0.008381   0.328736   0.659053
  0.723834   0.167815   0.824960
  0.494009   0.672070   0.665351
  0.003100   0.009562   0.652037
  0.996262   0.332785   0.343181
  0.509095   0.003696   0.002678
  0.261529   0.842331   0.489742
  0.741543   0.837160   0.495509
  0.259546   0.508066   0.175245
  0.736552   0.495549   0.510729
  0.992548   0.027575   0.001279
  0.756486   0.496143   0.816888
  0.272124   0.163668   0.492708
  0.270433   0.153602   0.829898
  0.495158   0.989388   0.657478
  0.505972   0.334739   0.336556
  0.012651   0.645798   0.994867
  0.496269   0.664376   0.347093
  0.265030   0.492689   0.500774
  0.510935   0.001121   0.337800
  0.995778   0.002949   0.345085
  0.999725   0.659633   0.659738
  0.233166   0.504003   0.825901
  0.486050   0.338353   0.662508
  0.742235   0.159021   0.170051
  0.730530   0.164502   0.499296
