generated by pypospack
   4.98831
  1.382230  -0.000202   0.000649
 -0.000208   2.037456  -0.000741
  0.000971  -0.000774   2.050163
 Ta Hf Nb Zr
 13 9 7 7
Direct
  0.762308   0.842898   0.502465
  0.238507   0.496414   0.175323
  0.999843   0.665258   0.007453
  0.224716   0.834615   0.175915
  0.758853   0.491748   0.492607
  0.773540   0.833846   0.170117
  0.014953   0.993888   0.009890
  0.765361   0.516818   0.832988
  0.993998   0.666581   0.333218
  0.257380   0.159471   0.494880
  0.245507   0.147021   0.826631
  0.496905   0.007968   0.663296
  0.482771   0.345679   0.349704
  0.494175   0.335646   0.670411
  0.489410   0.988003   0.009680
  0.743297   0.165718   0.491084
  0.762559   0.834313   0.826064
  0.253935   0.169851   0.181075
  0.007187   0.333093   0.667329
  0.236980   0.841051   0.502119
  0.759436   0.150444   0.837148
  0.508211   0.658474   0.658991
  0.239210   0.502076   0.493958
  0.504190   0.983993   0.329427
  0.995736   0.992191   0.330641
  0.006395   0.015591   0.659827
  0.990252   0.656031   0.658636
  0.015784   0.341928   0.346790
  0.231270   0.522481   0.829410
  0.751260   0.165529   0.170907
  0.240027   0.834273   0.822981
  0.754418   0.489992   0.171770
  0.501785   0.670106   0.335035
  0.019444   0.338031   0.985974
  0.496275   0.667769   0.002939
  0.484120   0.341222   0.983308
