AuPt                                    
   1.00000000000000     
     8.2710592908755292    0.0064961358836258    0.0028561800382736
     0.0065651817511565    8.1300943978519431    0.0130217276061602
     0.0039129994175811    0.0134918621518547    8.1498102715832452
   Au   Pt
    23     9
Direct
  0.0018384508033718  0.2529806700259874  0.7506914148382561
  0.4972184816217140  0.5026245315593122  0.5009188706148339
  0.0010598880342703  0.9977513812671295  0.4980903936078666
  0.7486690459261569  0.7515860661672012  0.4985053003031138
  0.2514065621226475  0.9980690616942949  0.7498297284811730
  0.7475577154621055  0.2494602127272293  0.0015640367230682
  0.4990559279429701  0.2466658204998204  0.2494311302056545
  0.7471921640800048  0.5023573270369469  0.7507647646360495
  0.0033085550326684  0.5042484196415005  0.0012814069908439
  0.7492166488523785  0.7508759178242150  0.0010287207412877
  0.0037544813334574  0.7503375272866432  0.7500098796793488
  0.0036872714968949  0.5038003853785825  0.4992948724320163
  0.2517028664757197  0.2510994716223411  0.0010903553808435
  0.4992432659769142  0.7497419523104424  0.2488655229062763
  0.2513668079476296  0.5033532219020750  0.2492620776187641
  0.2517858464307003  0.2484290600384761  0.4995362751351559
  0.7457214817280925  0.9975657212482135  0.7491040316358150
  0.7502359767859940  0.5012725660956132  0.2481350847565295
  0.0010846821519564  0.2466821431703010  0.2505465312492908
  0.7475690783762201  0.2465104659472034  0.4982544999000073
  0.0021118998390459  0.9976366232514153  0.0036441681547089
  0.4978244048692000  0.2507153862987543  0.7492419001268014
  0.4975654352910695  0.9965282724958737  0.0012329651472773
  0.4970787181455121  0.9935887574004244  0.4985289934633316
  0.4952831372505723  0.5050553066411207  0.9946608705745805
  0.2516905317882316  0.9923864918558406  0.2528117454577558
  0.2520445033997277  0.7493006046423046  0.0001420286769499
  0.4923997937127895  0.7482112025058346  0.7501810346461335
  0.0057970393706510  0.7540536836765370  0.2506694860514504
  0.7495948256888736  0.9970665268066357  0.2520779210191331
  0.2533277300265584  0.5070207598106026  0.7512430237817375
  0.2526027820358897  0.7530214611711561  0.4993589650639438
 
  0.00000000E+00  0.00000000E+00  0.00000000E+00
  0.00000000E+00  0.00000000E+00  0.00000000E+00
  0.00000000E+00  0.00000000E+00  0.00000000E+00
  0.00000000E+00  0.00000000E+00  0.00000000E+00
  0.00000000E+00  0.00000000E+00  0.00000000E+00
  0.00000000E+00  0.00000000E+00  0.00000000E+00
  0.00000000E+00  0.00000000E+00  0.00000000E+00
  0.00000000E+00  0.00000000E+00  0.00000000E+00
  0.00000000E+00  0.00000000E+00  0.00000000E+00
  0.00000000E+00  0.00000000E+00  0.00000000E+00
  0.00000000E+00  0.00000000E+00  0.00000000E+00
  0.00000000E+00  0.00000000E+00  0.00000000E+00
  0.00000000E+00  0.00000000E+00  0.00000000E+00
  0.00000000E+00  0.00000000E+00  0.00000000E+00
  0.00000000E+00  0.00000000E+00  0.00000000E+00
  0.00000000E+00  0.00000000E+00  0.00000000E+00
  0.00000000E+00  0.00000000E+00  0.00000000E+00
  0.00000000E+00  0.00000000E+00  0.00000000E+00
  0.00000000E+00  0.00000000E+00  0.00000000E+00
  0.00000000E+00  0.00000000E+00  0.00000000E+00
  0.00000000E+00  0.00000000E+00  0.00000000E+00
  0.00000000E+00  0.00000000E+00  0.00000000E+00
  0.00000000E+00  0.00000000E+00  0.00000000E+00
  0.00000000E+00  0.00000000E+00  0.00000000E+00
  0.00000000E+00  0.00000000E+00  0.00000000E+00
  0.00000000E+00  0.00000000E+00  0.00000000E+00
  0.00000000E+00  0.00000000E+00  0.00000000E+00
  0.00000000E+00  0.00000000E+00  0.00000000E+00
  0.00000000E+00  0.00000000E+00  0.00000000E+00
  0.00000000E+00  0.00000000E+00  0.00000000E+00
  0.00000000E+00  0.00000000E+00  0.00000000E+00
  0.00000000E+00  0.00000000E+00  0.00000000E+00
