generated by pypospack
   4.98831
  1.386677   0.001422   0.003384
  0.002155   2.043892  -0.000334
  0.005051  -0.000396   2.038749
 Nb Zr Ta Hf
 8 7 12 9
Direct
  0.512988   0.673619   0.004844
  0.735528   0.826800   0.839882
  0.248560   0.168733   0.159268
  0.988649   0.678420   0.003421
  0.499140   0.009292   0.674828
  0.735033   0.170128   0.824225
  0.741901   0.829413   0.165261
  0.263752   0.160549   0.825092
  0.747255   0.494314   0.497515
  0.992764   0.997749   0.999595
  0.011543   0.322894   0.980005
  0.003154   0.666252   0.668271
  0.484435   0.000509   0.321739
  0.752383   0.498287   0.168443
  0.997685   0.997918   0.668579
  0.243547   0.169538   0.511219
  0.036379   0.330378   0.343315
  0.012993   0.334866   0.670743
  0.266381   0.501967   0.834140
  0.284141   0.831486   0.511347
  0.264143   0.823672   0.151531
  0.484282   0.331494   0.667424
  0.487308   0.317613   0.990772
  0.250665   0.500116   0.508178
  0.478434   0.668808   0.331243
  0.507553   0.003534   0.002316
  0.492137   0.657917   0.666716
  0.267886   0.828816   0.839522
  0.718088   0.832504   0.501860
  0.733104   0.498902   0.834166
  0.245618   0.507366   0.152897
  0.020320   0.681376   0.337998
  0.755886   0.175266   0.497797
  0.463083   0.334342   0.335237
  0.017460   0.994141   0.334213
  0.755811   0.181034   0.176394
