generated by pypospack                  
   4.98831000000000     
     1.4111909520287109    0.0071053917359092    0.0029458412240991
     0.0104287122325621    2.0572776460877868   -0.0000878795355815
     0.0044295248772592   -0.0002767621506888    2.0538248314916001
   Hf   Nb   Ta   Zr
    12    10     5     9
Direct
  0.4844524185661104  0.0036372677565468  0.9981344546877350
  0.2678598591184546  0.5060682195013296  0.1700377128813876
  0.5261350358749218  0.6649632174742922  0.6527586798534796
  0.2517427015424739  0.5086651830615789  0.8378816578859779
  0.2396505303711204  0.1681743550781690  0.4861629573169704
  0.0137767591925485  0.3317110630924096  0.0093547869568167
  0.9672743501645718  0.6645688696111748  0.0208962720828419
  0.2694896719095413  0.8135386349552065  0.1727646522986749
  0.4711853568331441 -0.0008378641457203  0.6710755130884281
  0.7703872671301978  0.8428704697939718  0.5004543426693744
  0.2392163181294969  0.8115156390129032  0.8334709103902355
  0.2388428561388698  0.8276074739331091  0.4931819200542992
  0.2680241990082446  0.1778499932429131  0.1815972153287652
 -0.0282918913061120  0.6530609812441709  0.6623551412382235
  0.5277062124627961  0.6736240073539149  0.0073442329678349
  0.7243553054536839  0.8304986619724196  0.1766890741393136
  0.5094230656396362  0.3437815421953201  0.3456994236619147
  0.9936575259509240  0.3420295661008492  0.3211597587657096
  0.0100850463028711  0.3332064562819205  0.6751956195855396
  0.4744074086056196  0.3205659301659711  0.0005152034171822
  0.2403890518840663  0.1777907615053675  0.8282308874100400
  0.5024698129691487  0.9949284103383310  0.3280365836740334
  0.7280025780833336  0.4948813890564582  0.1736518370366298
  0.0417774576529288  0.0107487194830791  0.6748790106732552
  0.5254033373543008  0.6628078455301570  0.3433045554627824
  0.7711876084531301  0.4961863529992795  0.4907331334736107
  0.9717483368656570  0.6631230107650967  0.3213205880042817
 -0.0001522729421060  0.9966903266903516  0.3054668953868612
  0.0116596524250991  0.0033839125782769  0.0051062757649278
  0.7685577344360883  0.1654412119853223  0.4989026588889176
  0.7569986224806211  0.1672794332597456  0.8309543302743835
  0.7278450204022601  0.1777509630296329  0.1692476400231592
  0.4947197014840679  0.3343426405812692  0.6554833127350678
  0.7698651969656640  0.8411712029738299  0.8216722262244190
  0.2318713281493396  0.5058469586255309  0.4951660590697775
  0.7382748362472841  0.4905341929158256  0.8411134766271523
 
  0.00000000E+00  0.00000000E+00  0.00000000E+00
  0.00000000E+00  0.00000000E+00  0.00000000E+00
  0.00000000E+00  0.00000000E+00  0.00000000E+00
  0.00000000E+00  0.00000000E+00  0.00000000E+00
  0.00000000E+00  0.00000000E+00  0.00000000E+00
  0.00000000E+00  0.00000000E+00  0.00000000E+00
  0.00000000E+00  0.00000000E+00  0.00000000E+00
  0.00000000E+00  0.00000000E+00  0.00000000E+00
  0.00000000E+00  0.00000000E+00  0.00000000E+00
  0.00000000E+00  0.00000000E+00  0.00000000E+00
  0.00000000E+00  0.00000000E+00  0.00000000E+00
  0.00000000E+00  0.00000000E+00  0.00000000E+00
  0.00000000E+00  0.00000000E+00  0.00000000E+00
  0.00000000E+00  0.00000000E+00  0.00000000E+00
  0.00000000E+00  0.00000000E+00  0.00000000E+00
  0.00000000E+00  0.00000000E+00  0.00000000E+00
  0.00000000E+00  0.00000000E+00  0.00000000E+00
  0.00000000E+00  0.00000000E+00  0.00000000E+00
  0.00000000E+00  0.00000000E+00  0.00000000E+00
  0.00000000E+00  0.00000000E+00  0.00000000E+00
  0.00000000E+00  0.00000000E+00  0.00000000E+00
  0.00000000E+00  0.00000000E+00  0.00000000E+00
  0.00000000E+00  0.00000000E+00  0.00000000E+00
  0.00000000E+00  0.00000000E+00  0.00000000E+00
  0.00000000E+00  0.00000000E+00  0.00000000E+00
  0.00000000E+00  0.00000000E+00  0.00000000E+00
  0.00000000E+00  0.00000000E+00  0.00000000E+00
  0.00000000E+00  0.00000000E+00  0.00000000E+00
  0.00000000E+00  0.00000000E+00  0.00000000E+00
  0.00000000E+00  0.00000000E+00  0.00000000E+00
  0.00000000E+00  0.00000000E+00  0.00000000E+00
  0.00000000E+00  0.00000000E+00  0.00000000E+00
  0.00000000E+00  0.00000000E+00  0.00000000E+00
  0.00000000E+00  0.00000000E+00  0.00000000E+00
  0.00000000E+00  0.00000000E+00  0.00000000E+00
  0.00000000E+00  0.00000000E+00  0.00000000E+00
