generated by pypospack
   4.98831
  1.396059   0.001383   0.000199
  0.002049   2.067675  -0.000826
  0.000199  -0.000891   2.065837
 Ta Nb Zr Hf
 10 4 11 11
Direct
  0.750639   0.840710   0.163683
  0.997402   0.348665   0.993370
  0.985679   0.990287   0.329869
  0.264951   0.486672   0.150148
  0.243799   0.833801   0.192014
  0.241494   0.827313   0.492394
  0.480129   0.998638   0.652412
  0.731033   0.493228   0.145238
  0.770732   0.149380   0.499669
  0.497544   0.665706   0.001545
  0.022985   0.674905   0.685316
  0.265582   0.826789   0.824904
  0.503283   0.347594   0.995200
  0.748072   0.505317   0.841753
  0.499939   0.663258   0.323772
  0.736857   0.156652   0.837703
  0.022401   0.987282   0.000954
  0.221413   0.169346   0.487311
  0.271478   0.176838   0.842099
  0.006578   0.665746   0.004653
  0.513037   0.334491   0.339151
  0.777122   0.524721   0.513942
  0.487980   0.663769   0.676618
  0.757410   0.834320   0.508755
  0.255202   0.495078   0.840752
  0.981285   0.330518   0.679202
  0.754845   0.164939   0.155873
  0.240483   0.178598   0.164106
  0.028554   0.997819   0.669904
  0.974535   0.348083   0.325008
  0.228810   0.506234   0.509071
  0.996566   0.664255   0.314446
  0.476091   0.976956   0.014176
  0.505469  -0.000141   0.335412
  0.518940   0.334553   0.658145
  0.741684   0.837689   0.831440
