AuPt                                    
   1.00000000000000     
     8.0663280000000004    0.0015840000000000   -0.0000820000000000
     0.0015660000000000    8.1845979999999994   -0.0191390000000000
    -0.0000850000000000   -0.0191210000000000    8.1693700000000007
   Au   Pt
    24     8
Direct
  0.2500410000000031  0.7497159999999994  0.4924139999999966
  0.9996319999999983  0.2531749999999988  0.7552379999999985
  0.4996790000000004  0.4984210000000004  0.4987149999999971
  0.0004700000000000  0.0013119999999986  0.4992859999999979
  0.7495090000000033  0.7479000000000013  0.4985489999999970
  0.2499189999999984  0.0035710000000009  0.7477400000000003
  0.7526009999999985  0.2532050000000012  0.9990740000000002
  0.4975669999999965  0.2513149999999982  0.2488930000000025
  0.7494850000000000  0.4935839999999985  0.7588999999999970
  0.9986650000000026  0.4955319999999972  0.0024420000000021
  0.7496920000000031  0.7490379999999988  0.0007859999999980
  0.9976100000000017  0.7487729999999999  0.7493180000000024
  0.0001359999999977  0.4992840000000029  0.4988620000000026
  0.2481340000000003  0.2535000000000025  0.0015399999999985
  0.4966890000000035  0.7440980000000010  0.2486379999999997
  0.2488099999999989  0.5001219999999975  0.2469949999999983
  0.2464259999999996  0.2507579999999976  0.4990359999999967
  0.7493229999999969  0.0075229999999991  0.7524280000000019
  0.7528069999999971  0.5000050000000016  0.2432700000000025
  0.0056749999999965  0.2542809999999989  0.2462379999999982
  0.7519240000000025  0.2525419999999983  0.5011220000000023
  0.0013250000000014  0.0019530000000003  0.0007099999999980
  0.4998709999999988  0.2532769999999971  0.7562860000000029
  0.4985679999999988  0.0023350000000022  0.0014930000000035
  0.4984940000000009  0.0011840000000021  0.4995199999999969
  0.5016919999999985  0.4959490000000031  0.0020840000000035
  0.2470690000000033  0.9983319999999978  0.2521139999999988
  0.2502819999999986  0.7472339999999988  0.0011659999999978
  0.5019479999999987  0.7491989999999973  0.7490189999999970
  0.0033230000000017  0.7448779999999999  0.2487989999999982
  0.7524080000000026  0.9997669999999985  0.2488570000000010
  0.2502240000000029  0.4982359999999986  0.7504679999999979
 
  0.00000000E+00  0.00000000E+00  0.00000000E+00
  0.00000000E+00  0.00000000E+00  0.00000000E+00
  0.00000000E+00  0.00000000E+00  0.00000000E+00
  0.00000000E+00  0.00000000E+00  0.00000000E+00
  0.00000000E+00  0.00000000E+00  0.00000000E+00
  0.00000000E+00  0.00000000E+00  0.00000000E+00
  0.00000000E+00  0.00000000E+00  0.00000000E+00
  0.00000000E+00  0.00000000E+00  0.00000000E+00
  0.00000000E+00  0.00000000E+00  0.00000000E+00
  0.00000000E+00  0.00000000E+00  0.00000000E+00
  0.00000000E+00  0.00000000E+00  0.00000000E+00
  0.00000000E+00  0.00000000E+00  0.00000000E+00
  0.00000000E+00  0.00000000E+00  0.00000000E+00
  0.00000000E+00  0.00000000E+00  0.00000000E+00
  0.00000000E+00  0.00000000E+00  0.00000000E+00
  0.00000000E+00  0.00000000E+00  0.00000000E+00
  0.00000000E+00  0.00000000E+00  0.00000000E+00
  0.00000000E+00  0.00000000E+00  0.00000000E+00
  0.00000000E+00  0.00000000E+00  0.00000000E+00
  0.00000000E+00  0.00000000E+00  0.00000000E+00
  0.00000000E+00  0.00000000E+00  0.00000000E+00
  0.00000000E+00  0.00000000E+00  0.00000000E+00
  0.00000000E+00  0.00000000E+00  0.00000000E+00
  0.00000000E+00  0.00000000E+00  0.00000000E+00
  0.00000000E+00  0.00000000E+00  0.00000000E+00
  0.00000000E+00  0.00000000E+00  0.00000000E+00
  0.00000000E+00  0.00000000E+00  0.00000000E+00
  0.00000000E+00  0.00000000E+00  0.00000000E+00
  0.00000000E+00  0.00000000E+00  0.00000000E+00
  0.00000000E+00  0.00000000E+00  0.00000000E+00
  0.00000000E+00  0.00000000E+00  0.00000000E+00
  0.00000000E+00  0.00000000E+00  0.00000000E+00
