SYSTEM = automatically generated by mexm

# *****************************STARTING INFORMATION*****************************
ISTART = 0                    ! begin from scratch
ICHARG = 2                    ! Take superposition of atomic charge densities
# ******************************DENSITY OF STATES*******************************
ISMEAR = 0                    ! method of Gaussian smearing
SIGMA = 2                     ! width of the smearing in eV.
# ***********************************SYMMETRY***********************************
ISYM = 2                      ! symmetry_on, efficient symmetrization
SYMPREC = 0.0001              ! determines how accurate positions must be
# **************************ELECTRONIC SCF RELAXATION***************************
ALGO = Normal                 ! blocked Davidson iteration scheme
PREC = High                   ! avoid wrap around errors
LREAL = .FALSE.               ! projection done in reciprocal space
EDIFF = 1e-06                 ! convergence condition for SC-loop in eV
ENCUT = 400                   ! Cut-off energy for plane wave basis set in eV
NELM = 40                     ! maximum number of electronic SCF steps
# ***********************SPIN POLARIZATION CONFIGURATION************************
ISPIN = 1                     ! non-spin polarized calculations
# ************************************MIXING************************************
AMIX = 0.4
BMIX = 1.0
AMIX_MAG = 1.6
BMIX_MAG = 1.0
# *****************************OUTPUT CONFIGURATION*****************************
LWAVE = .FALSE.               ! do not write WAVECAR
LCHARG = .FALSE.              ! no CHGCAR, no CHG
LVTOT = .FALSE.               ! no LOCPOT
