generated by pypospack                  
   4.98831000000000     
     1.3941198150464900   -0.0004294100967309   -0.0028932717865106
    -0.0004973865590649    2.0495843894536243    0.0086482527028071
    -0.0042353384971754    0.0086700995241823    2.0579125931361228
   Zr   Nb   Ta   Hf
     8     8     9    11
Direct
  0.4870215144459726  0.3235740975312685  0.3282445563643303
  0.7411798384850576  0.4954154246255715  0.4983825848773146
  0.0065955268739005  0.9934355754190823  0.9978078796347604
  0.5024011457945918  0.0030327019470684  0.3323406519867954
  0.2591245731708596  0.8366430868244861  0.5059213829769118
  0.7748040967867180  0.1702523107462059  0.1612363405642805
  0.0050265674563593  0.6854331659726556  0.0011514352789787
  0.0035801355371417  0.3283223587102727  0.6658815567319267
  0.7619722679273885  0.1738713634024324  0.4887053498839819
  0.2247935657597519  0.1675095392335549  0.1705633455905088
  0.7575853964314825  0.1842641753419449  0.8495291172183608
  0.2469053451555454  0.1725181772104691  0.8324994318239750
  0.0259290782445289  0.3299671531576168  0.9867325793179295
  0.7454454031137575  0.8276421649420771  0.5036000875625818
  0.2513917578099806  0.8369629658524688  0.1831229248089961
  0.4903136748688540  0.3300229817266777  0.6728496538079205
  0.7484217578336917  0.8383210120262425  0.1834164273057337
  0.2430345625817346  0.1621808574658878  0.4981681118425054
  0.0152896373632374  0.3234780262007934  0.3470889342995839
  0.2486353902515097  0.5052607511436283  0.8249534929973990
  0.2539714612606936  0.4972713898892586  0.4988623041180074
  0.5022780557030636  0.6727985438542350  0.3270538899968620
  0.4853628569921573  0.6414301646511809  0.6542873996687898
  0.0120368968287775  0.6555947214429041  0.6564675039045670
  0.9977638797206325  0.9960543358465875  0.3399668211955900
  0.4776836429694976  0.3297595275544622  0.9996648684737666
  0.7668930363254430  0.4961843986651833  0.1649155699861658
  0.2693976449184725  0.8216133442726127  0.8133752584483676
  0.7516016191541132  0.4998904195456925  0.8349128774969783
  0.2245521240281998  0.4968042647791984  0.1740944423005533
  0.9940270419950580  0.6784650190643663  0.3404515001407916
  0.4939947825029020  0.6741787232661384  0.0189305896474051
  0.5213859401049490  0.0274233238660317  0.6686549124390134
  0.9845725765147791  0.0092535596267048  0.6674462424773540
  0.7307597896086446  0.8139591056489661  0.8087952682730054
  0.4942704154805524  0.0012282685460870 -0.0000752934420128
 
  0.00000000E+00  0.00000000E+00  0.00000000E+00
  0.00000000E+00  0.00000000E+00  0.00000000E+00
  0.00000000E+00  0.00000000E+00  0.00000000E+00
  0.00000000E+00  0.00000000E+00  0.00000000E+00
  0.00000000E+00  0.00000000E+00  0.00000000E+00
  0.00000000E+00  0.00000000E+00  0.00000000E+00
  0.00000000E+00  0.00000000E+00  0.00000000E+00
  0.00000000E+00  0.00000000E+00  0.00000000E+00
  0.00000000E+00  0.00000000E+00  0.00000000E+00
  0.00000000E+00  0.00000000E+00  0.00000000E+00
  0.00000000E+00  0.00000000E+00  0.00000000E+00
  0.00000000E+00  0.00000000E+00  0.00000000E+00
  0.00000000E+00  0.00000000E+00  0.00000000E+00
  0.00000000E+00  0.00000000E+00  0.00000000E+00
  0.00000000E+00  0.00000000E+00  0.00000000E+00
  0.00000000E+00  0.00000000E+00  0.00000000E+00
  0.00000000E+00  0.00000000E+00  0.00000000E+00
  0.00000000E+00  0.00000000E+00  0.00000000E+00
  0.00000000E+00  0.00000000E+00  0.00000000E+00
  0.00000000E+00  0.00000000E+00  0.00000000E+00
  0.00000000E+00  0.00000000E+00  0.00000000E+00
  0.00000000E+00  0.00000000E+00  0.00000000E+00
  0.00000000E+00  0.00000000E+00  0.00000000E+00
  0.00000000E+00  0.00000000E+00  0.00000000E+00
  0.00000000E+00  0.00000000E+00  0.00000000E+00
  0.00000000E+00  0.00000000E+00  0.00000000E+00
  0.00000000E+00  0.00000000E+00  0.00000000E+00
  0.00000000E+00  0.00000000E+00  0.00000000E+00
  0.00000000E+00  0.00000000E+00  0.00000000E+00
  0.00000000E+00  0.00000000E+00  0.00000000E+00
  0.00000000E+00  0.00000000E+00  0.00000000E+00
  0.00000000E+00  0.00000000E+00  0.00000000E+00
  0.00000000E+00  0.00000000E+00  0.00000000E+00
  0.00000000E+00  0.00000000E+00  0.00000000E+00
  0.00000000E+00  0.00000000E+00  0.00000000E+00
  0.00000000E+00  0.00000000E+00  0.00000000E+00
