generated by pypospack                  
   4.98831000000000     
     1.3781881038582307   -0.0031218741028048   -0.0033064518178565
    -0.0044136743199436    2.0406384280593839    0.0023682861840811
    -0.0048969427081493    0.0023170915315909    2.0436275699870898
   Zr   Nb   Ta   Hf
     9    10    11     6
Direct
  0.7684233718356256  0.8334284283620671  0.8383944204617343
  0.7591874475952249  0.8357079551990269  0.1684929574483833
  0.4904090200359942  0.3390882874721546  0.0006427167650793
  0.0095920233118229  0.6607533356411345  0.3524553277531969
  0.2293987567155636  0.8424045275913039  0.8424930844088028
  0.7443668277978749  0.5122829377781791  0.1717511574252615
  0.0029309256845428  0.3308157701915097  0.9974598335308118
  0.4895289622201249  0.6585680630093566  0.9866650915606342
  0.2591035464231727  0.1568951827096935  0.1753995120260206
  0.0126506571803881  0.6457982963661175  0.9948673833793484
  0.4962692215999561  0.6643760453731264  0.3470928745536875
  0.2650298349904637  0.4926893550986706  0.5007736851329594
  0.5109348181411143  0.0011209347237301  0.3378002275734574
  0.9957778223251302  0.0029485443954735  0.3450850388935064
  0.9997254195687241  0.6596331869525802  0.6597378589675083
  0.2331657206876272  0.5040028949962799  0.8259008734461597
  0.4860496796871052  0.3383526709086744  0.6625082007630045
  0.7422349697184478  0.1590213299694285  0.1700506600090317
  0.7305303241932929  0.1645017147277034  0.4992958578087154
  0.5090953678856203  0.0036960576209068  0.0026782508782703
  0.2615289151705407  0.8423314423479813  0.4897421560382897
  0.7415426751556116  0.8371602184878998  0.4955094490615197
  0.2595462399856924  0.5080663707249959  0.1752450849758234
  0.7365524797218934  0.4955491115656502  0.5107286910684005
  0.9925484121688387  0.0275750376796598  0.0012785919164483
  0.7564862638865920  0.4961429413599944  0.8168880553310064
  0.2721236078251604  0.1636683601768637  0.4927075585177765
  0.2704330623562791  0.1536021774244593  0.8298980718153081
  0.4951575723025727  0.9893878143445505  0.6574776150510899
  0.5059717256069545  0.3347388258436814  0.3365559718682197
  0.2481148118243548  0.8347350060122345  0.1698412685373084
  0.0083805335592066  0.3287361873198311  0.6590528516505537
  0.7238336132576882  0.1678145857402459  0.8249601140371473
  0.4940088943154390  0.6720695540837960  0.6653508436389945
  0.0031002419122775  0.0095615699400015  0.6520368317848109
  0.9962622333530784  0.3327852778610335  0.3431808319217394
 
  0.00000000E+00  0.00000000E+00  0.00000000E+00
  0.00000000E+00  0.00000000E+00  0.00000000E+00
  0.00000000E+00  0.00000000E+00  0.00000000E+00
  0.00000000E+00  0.00000000E+00  0.00000000E+00
  0.00000000E+00  0.00000000E+00  0.00000000E+00
  0.00000000E+00  0.00000000E+00  0.00000000E+00
  0.00000000E+00  0.00000000E+00  0.00000000E+00
  0.00000000E+00  0.00000000E+00  0.00000000E+00
  0.00000000E+00  0.00000000E+00  0.00000000E+00
  0.00000000E+00  0.00000000E+00  0.00000000E+00
  0.00000000E+00  0.00000000E+00  0.00000000E+00
  0.00000000E+00  0.00000000E+00  0.00000000E+00
  0.00000000E+00  0.00000000E+00  0.00000000E+00
  0.00000000E+00  0.00000000E+00  0.00000000E+00
  0.00000000E+00  0.00000000E+00  0.00000000E+00
  0.00000000E+00  0.00000000E+00  0.00000000E+00
  0.00000000E+00  0.00000000E+00  0.00000000E+00
  0.00000000E+00  0.00000000E+00  0.00000000E+00
  0.00000000E+00  0.00000000E+00  0.00000000E+00
  0.00000000E+00  0.00000000E+00  0.00000000E+00
  0.00000000E+00  0.00000000E+00  0.00000000E+00
  0.00000000E+00  0.00000000E+00  0.00000000E+00
  0.00000000E+00  0.00000000E+00  0.00000000E+00
  0.00000000E+00  0.00000000E+00  0.00000000E+00
  0.00000000E+00  0.00000000E+00  0.00000000E+00
  0.00000000E+00  0.00000000E+00  0.00000000E+00
  0.00000000E+00  0.00000000E+00  0.00000000E+00
  0.00000000E+00  0.00000000E+00  0.00000000E+00
  0.00000000E+00  0.00000000E+00  0.00000000E+00
  0.00000000E+00  0.00000000E+00  0.00000000E+00
  0.00000000E+00  0.00000000E+00  0.00000000E+00
  0.00000000E+00  0.00000000E+00  0.00000000E+00
  0.00000000E+00  0.00000000E+00  0.00000000E+00
  0.00000000E+00  0.00000000E+00  0.00000000E+00
  0.00000000E+00  0.00000000E+00  0.00000000E+00
  0.00000000E+00  0.00000000E+00  0.00000000E+00
