generated by pypospack                  
   4.98831000000000     
     1.3874234018709886   -0.0006643047492474    0.0017062308989056
    -0.0010370326738714    2.0707638884413728    0.0007021850204374
     0.0026288942629226    0.0006411690199150    2.0365394630016613
   Ta   Zr   Nb   Hf
     8    10    10     8
Direct
  0.5012730340451091  0.6695985427827049  0.9878036881089303
  0.2612243147435185  0.1804595930089324  0.1712172787406835
  0.0287750319110123  0.0040779034496973  0.3241635754623741
  0.0197200746295551  0.9849356744146052  0.6808742902852767
  0.5094876634642055  0.3381921029385830  0.3439282935041894
  0.7640550772245323  0.4985046105462936  0.4996187555215800
  0.4995411544170317  0.3435088493166143  0.6417730006028344
  0.5166447991409900  0.6605724886107093  0.3496415631362492
  0.2643484356089990  0.1798235627648086  0.8313836211992599
  0.7489630329270980  0.1719985231879782  0.8239710586143827
  0.0098998923897863 -0.0014682916711677 -0.0012571857552396
  0.2279082330532164  0.1762781965606262  0.5042444683390792
  0.2591796319638447  0.5040137416309083  0.1744713218745235
  0.4953680412443593  0.9858571268398750  0.9903187099217633
  0.7412238925595673  0.1633728127464312  0.1718246931063279
  0.4743328564573384  0.0008138819369161  0.3450389485579142
  0.7380114202188621  0.4946401181868250  0.8257681773329797
  0.4922520597667389  0.6718115691716086  0.6599406994247361
  0.2570805633613116  0.4971424983758145  0.8287539729560494
  0.9884763665433138  0.3342984166769443  0.3157778131641020
  0.0051211939607262  0.3485472507787074  0.6759725484754138
  0.9763190574089762  0.6593403595713566  0.3301273248052252
  0.2227464874729151  0.8279747055050998  0.4970294623297292
  0.2439270427648249  0.8235409278560285  0.8333708947528967
  0.4975197117265702  0.3409066008156814  0.0106403932482338
  0.7351633376799495  0.5007074175475140  0.1718677452305596
  0.7591913702742934  0.8272186486269604  0.8238609331858534
  0.0046080105983219  0.6716571745613149  0.6760174800021377
  0.0020250136352024  0.3395455318579237  0.0072166294709311
  0.9930708581077103  0.6590880627333265  0.9943206253000623
  0.2560753684862428  0.8131750734192946  0.1751965650588143
  0.7708028042875560  0.1697058394401545  0.5031316108651612
  0.4880198575186530  0.9888747536588511  0.6659077043280660
  0.7443770789748919  0.8305499660790776  0.1765180378857978
  0.7750313456445220  0.8392202122878029  0.4965143055157821
  0.2282448857882372  0.5015175537851866  0.4930459954473307
 
  0.00000000E+00  0.00000000E+00  0.00000000E+00
  0.00000000E+00  0.00000000E+00  0.00000000E+00
  0.00000000E+00  0.00000000E+00  0.00000000E+00
  0.00000000E+00  0.00000000E+00  0.00000000E+00
  0.00000000E+00  0.00000000E+00  0.00000000E+00
  0.00000000E+00  0.00000000E+00  0.00000000E+00
  0.00000000E+00  0.00000000E+00  0.00000000E+00
  0.00000000E+00  0.00000000E+00  0.00000000E+00
  0.00000000E+00  0.00000000E+00  0.00000000E+00
  0.00000000E+00  0.00000000E+00  0.00000000E+00
  0.00000000E+00  0.00000000E+00  0.00000000E+00
  0.00000000E+00  0.00000000E+00  0.00000000E+00
  0.00000000E+00  0.00000000E+00  0.00000000E+00
  0.00000000E+00  0.00000000E+00  0.00000000E+00
  0.00000000E+00  0.00000000E+00  0.00000000E+00
  0.00000000E+00  0.00000000E+00  0.00000000E+00
  0.00000000E+00  0.00000000E+00  0.00000000E+00
  0.00000000E+00  0.00000000E+00  0.00000000E+00
  0.00000000E+00  0.00000000E+00  0.00000000E+00
  0.00000000E+00  0.00000000E+00  0.00000000E+00
  0.00000000E+00  0.00000000E+00  0.00000000E+00
  0.00000000E+00  0.00000000E+00  0.00000000E+00
  0.00000000E+00  0.00000000E+00  0.00000000E+00
  0.00000000E+00  0.00000000E+00  0.00000000E+00
  0.00000000E+00  0.00000000E+00  0.00000000E+00
  0.00000000E+00  0.00000000E+00  0.00000000E+00
  0.00000000E+00  0.00000000E+00  0.00000000E+00
  0.00000000E+00  0.00000000E+00  0.00000000E+00
  0.00000000E+00  0.00000000E+00  0.00000000E+00
  0.00000000E+00  0.00000000E+00  0.00000000E+00
  0.00000000E+00  0.00000000E+00  0.00000000E+00
  0.00000000E+00  0.00000000E+00  0.00000000E+00
  0.00000000E+00  0.00000000E+00  0.00000000E+00
  0.00000000E+00  0.00000000E+00  0.00000000E+00
  0.00000000E+00  0.00000000E+00  0.00000000E+00
  0.00000000E+00  0.00000000E+00  0.00000000E+00
