generated by pypospack
   4.98831
  1.388859   0.001663   0.002900
  0.002470   2.054153   0.000796
  0.004384   0.000728   2.038417
 Ta Zr Nb Hf
 8 10 10 8
Direct
  0.512391   0.673199   0.988221
  0.263588   0.181755   0.172770
  0.030089   0.002894   0.323753
  0.023199   0.991284   0.679185
  0.514171   0.345409   0.340789
  0.762372   0.496903   0.500135
  0.486712   0.332642   0.661761
  0.517287   0.656443   0.347874
  0.253865   0.176030   0.826934
  0.747482   0.169778   0.827185
  0.016735   0.000514   0.998620
  0.227914   0.178707   0.501863
  0.261161   0.504281   0.170846
  0.486305   0.992930   0.990625
  0.739229   0.163458   0.171213
  0.474274   0.999088   0.346389
  0.738147   0.492850   0.825779
  0.492215   0.673426   0.660804
  0.260023   0.493798   0.830417
  0.983499   0.338203   0.315525
  0.011976   0.338922   0.681513
  0.981009   0.659362   0.333314
  0.220286   0.827045   0.497284
  0.245216   0.826022   0.832969
  0.485673   0.331326   0.999368
  0.738663   0.503418   0.171869
  0.759308   0.832203   0.822833
  0.006231   0.672319   0.675582
  0.009119   0.336119   0.003792
  0.989539   0.659654   0.990995
  0.257951   0.811372   0.172250
  0.767807   0.171668   0.502851
  0.483279   0.995957   0.665257
  0.748447   0.832730   0.175750
  0.775170   0.839459   0.496789
  0.229677   0.498834   0.496891
