generated by pypospack                  
   4.98831000000000     
     1.3987795257321609    0.0021618636683783    0.0011239624449948
     0.0033111399738040    2.0517754572594717    0.0048851933722277
     0.0017111249245464    0.0048570424155402    2.0598782467677799
   Nb   Ta   Hf   Zr
     5    11    13     7
Direct
  0.7638769829859053  0.1755878323550007  0.4879262853148056
  0.2270497103601420  0.1645621785854792  0.1680253730609075
  0.7588324999311412  0.1863925225989561  0.8449538582038764
  0.2458382191296394  0.1674265328448159  0.8346028302540024
  0.0220078829110389  0.3266679143570795  0.9862733003697206
  0.7427645535498730  0.8327265129476598  0.1932602712885656
  0.2439554975752727  0.1646858493520821  0.4973828458266945
  0.0208452668184932  0.3268042688914047  0.3471652349195646
  0.2427486535916512  0.4981181090726832  0.8323610987800014
  0.2546631789235272  0.8373933613797295  0.1772266817998618
  0.4923514644655702  0.3306034271391723  0.6683805262122690
  0.2535302803247140  0.4950532994898110  0.4996756350641813
  0.4851137231822526  0.6644811694621056  0.3207878724646023
  0.4703733485275592  0.6335177334110597  0.6644621640427949
  0.0229465533386006  0.6557415589241781  0.6626021108244031
  0.0065337659719649  0.9985420705099810  0.3369570312557662
  0.4814396079388594  0.3234785032939561  0.9998174856076085
  0.7653519774803448  0.4964373693663042  0.1686635271295528
  0.2692269450281778  0.8289402577073018  0.8186553181954389
  0.7401396010606243  0.8263859507198136  0.5003766569694679
  0.7520328310213101  0.4980750801153400  0.8335297077255578
  0.2224677830808606  0.4959086596089063  0.1629884241867411
  0.0151764658053153  0.6771793378395597  0.3382926903733750
  0.4838186362737233  0.3272738494669008  0.3298190351281591
  0.5013409657262397  0.6745348171241844  0.0166469682254081
  0.5213029720776559  0.0334490928429369  0.6704697575255321
  0.9870270972986601  0.0107229477204592  0.6684881456504229
  0.7264450965146679  0.8126202102683542  0.8041152493303775
  0.5040883682822026  0.0001711986063878  0.0023482576045722
  0.7434317576925739  0.5027384005869355  0.4994232629067452
  0.9966286030794062  0.9918566354077503 -0.0000109940914675
  0.4982200150459895  0.0112551829107443  0.3264806086084243
  0.2657038531470478  0.8375321723294313  0.5068914747392262
  0.7793049103117804  0.1773576140564254  0.1666719893978511
  0.9899898486799271  0.6869109144684422  0.0003509725441516
  0.0034300828672896  0.3288834642386631  0.6639373425608260
 
  0.00000000E+00  0.00000000E+00  0.00000000E+00
  0.00000000E+00  0.00000000E+00  0.00000000E+00
  0.00000000E+00  0.00000000E+00  0.00000000E+00
  0.00000000E+00  0.00000000E+00  0.00000000E+00
  0.00000000E+00  0.00000000E+00  0.00000000E+00
  0.00000000E+00  0.00000000E+00  0.00000000E+00
  0.00000000E+00  0.00000000E+00  0.00000000E+00
  0.00000000E+00  0.00000000E+00  0.00000000E+00
  0.00000000E+00  0.00000000E+00  0.00000000E+00
  0.00000000E+00  0.00000000E+00  0.00000000E+00
  0.00000000E+00  0.00000000E+00  0.00000000E+00
  0.00000000E+00  0.00000000E+00  0.00000000E+00
  0.00000000E+00  0.00000000E+00  0.00000000E+00
  0.00000000E+00  0.00000000E+00  0.00000000E+00
  0.00000000E+00  0.00000000E+00  0.00000000E+00
  0.00000000E+00  0.00000000E+00  0.00000000E+00
  0.00000000E+00  0.00000000E+00  0.00000000E+00
  0.00000000E+00  0.00000000E+00  0.00000000E+00
  0.00000000E+00  0.00000000E+00  0.00000000E+00
  0.00000000E+00  0.00000000E+00  0.00000000E+00
  0.00000000E+00  0.00000000E+00  0.00000000E+00
  0.00000000E+00  0.00000000E+00  0.00000000E+00
  0.00000000E+00  0.00000000E+00  0.00000000E+00
  0.00000000E+00  0.00000000E+00  0.00000000E+00
  0.00000000E+00  0.00000000E+00  0.00000000E+00
  0.00000000E+00  0.00000000E+00  0.00000000E+00
  0.00000000E+00  0.00000000E+00  0.00000000E+00
  0.00000000E+00  0.00000000E+00  0.00000000E+00
  0.00000000E+00  0.00000000E+00  0.00000000E+00
  0.00000000E+00  0.00000000E+00  0.00000000E+00
  0.00000000E+00  0.00000000E+00  0.00000000E+00
  0.00000000E+00  0.00000000E+00  0.00000000E+00
  0.00000000E+00  0.00000000E+00  0.00000000E+00
  0.00000000E+00  0.00000000E+00  0.00000000E+00
  0.00000000E+00  0.00000000E+00  0.00000000E+00
  0.00000000E+00  0.00000000E+00  0.00000000E+00
