generated by pypospack
   4.98831
  1.398966   0.001924   0.000887
  0.002960   2.053203   0.004591
  0.001361   0.004562   2.061395
 Nb Ta Hf Zr
 5 11 13 7
Direct
  0.764214   0.175800   0.487935
  0.227075   0.165014   0.168493
  0.757880   0.187218   0.844081
  0.246141   0.168212   0.834609
  0.022164   0.326341   0.986211
  0.742876   0.832512   0.193556
  0.243062   0.164778   0.497206
  0.020957   0.326964   0.347084
  0.242583   0.498392   0.832272
  0.254588   0.837244   0.177705
  0.492481   0.330514   0.668627
  0.253630   0.495068   0.499680
  0.485248   0.664770   0.320591
  0.470873   0.633193   0.664535
  0.023008   0.655191   0.662448
  0.006323  -0.001652   0.336692
  0.481512   0.325570   0.999823
  0.765647   0.496335   0.168616
  0.268911   0.828045   0.818170
  0.740417   0.826135   0.500274
  0.752841   0.497969   0.833614
  0.222052   0.495800   0.163168
  0.015180   0.676911   0.338080
  0.483855   0.326988   0.329664
  0.500971   0.672878   0.016470
  0.520364   0.033259   0.668684
  0.987073   0.010973   0.668960
  0.726779   0.812218   0.803642
  0.504068   0.000164   0.002034
  0.743759   0.502700   0.499334
  0.996874   0.992416   0.000364
  0.498209   0.010896   0.328264
  0.265147   0.836941   0.507018
  0.779261   0.177828   0.167447
  0.990403   0.687512   0.000583
  0.003573   0.328919   0.664065
