generated by pypospack                  
   4.98831000000000     
     1.3920147804015535    0.0008481501670497   -0.0001431979581534
     0.0012015153361486    2.0646402806902526    0.0030633812320447
    -0.0000825277135388    0.0029428926063474    2.0475205873083890
   Hf   Nb   Ta   Zr
     9    10     7    10
Direct
  0.0017749939805329  0.3378264895510522  0.0106075486988700
  0.9918611545284196  0.6592438199945480  0.9882514013041506
  0.2534493376487679  0.8129137046491698  0.1696660871241860
  0.7664665296593870  0.1708120444981611  0.5024329547566317
  0.4817387806524620  0.9899371163682515  0.6677921517902241
  0.7529412972198163  0.8276902040125997  0.1752212330523514
  0.7734342721633934  0.8462239608146150  0.4933854516041755
  0.2424541409144588  0.4966743294040584  0.4884049071614829
  0.0027584913296383  0.6664607273356150  0.6725326431321208
  0.5065568291512489  0.3351296473532006  0.3360182194612560
  0.2641384241134224  0.4915682246977059  0.8321845966629252
  0.9910706582281065  0.3353969564572278  0.3159958166480774
 -0.0012685880715971  0.3576117149922940  0.6680085607796264
  0.9798244380318530  0.6596461702581183  0.3388100416815731
  0.2235935442551998  0.8283503370262190  0.4921415046475875
  0.2546444538601488  0.8274111446681618  0.8456068265292237
  0.4956230158762784  0.3352994774136042  0.0054530798554066
  0.7374322008891577  0.5029523612340822  0.1721776153218132
  0.7500629528439688  0.8357128171842672  0.8304011335972663
  0.5091414460467129  0.6688026853826092  0.9897626802539349
  0.2648676606304242  0.1810380098958671  0.1722205474305136
  0.0303605502424119  0.0042433025577973  0.3230569255288778
  0.0232628801755032  0.9772660105662831  0.6798562641417083
  0.7501255754594296  0.4934093054368432  0.4948292627051285
  0.4974986101145313  0.3414585991018825  0.6538718126224765
  0.5171150121174900  0.6657189102581044  0.3477360001151664
  0.2485867011916767  0.1797762929610325  0.8259489355264789
  0.7551567209074939  0.1705042281338660  0.8203472682418388
  0.0081091088234538  0.0010050275496211  0.0021401611158235
  0.2291528854149653  0.1777527624959015  0.5040325334904951
  0.2613726750116339  0.5051625876187827  0.1729285436202959
  0.4998205114930243  0.9952451944003439  0.9944200833342419
  0.7387333168810466  0.1658128327211528  0.1771296123570470
  0.4737417738542895  0.9977830631767219  0.3427930697294739
  0.7306888350221743  0.4875051001374572  0.8309837874813085
  0.4937158093390568  0.6706618396927704  0.6628487384962534
 
  0.00000000E+00  0.00000000E+00  0.00000000E+00
  0.00000000E+00  0.00000000E+00  0.00000000E+00
  0.00000000E+00  0.00000000E+00  0.00000000E+00
  0.00000000E+00  0.00000000E+00  0.00000000E+00
  0.00000000E+00  0.00000000E+00  0.00000000E+00
  0.00000000E+00  0.00000000E+00  0.00000000E+00
  0.00000000E+00  0.00000000E+00  0.00000000E+00
  0.00000000E+00  0.00000000E+00  0.00000000E+00
  0.00000000E+00  0.00000000E+00  0.00000000E+00
  0.00000000E+00  0.00000000E+00  0.00000000E+00
  0.00000000E+00  0.00000000E+00  0.00000000E+00
  0.00000000E+00  0.00000000E+00  0.00000000E+00
  0.00000000E+00  0.00000000E+00  0.00000000E+00
  0.00000000E+00  0.00000000E+00  0.00000000E+00
  0.00000000E+00  0.00000000E+00  0.00000000E+00
  0.00000000E+00  0.00000000E+00  0.00000000E+00
  0.00000000E+00  0.00000000E+00  0.00000000E+00
  0.00000000E+00  0.00000000E+00  0.00000000E+00
  0.00000000E+00  0.00000000E+00  0.00000000E+00
  0.00000000E+00  0.00000000E+00  0.00000000E+00
  0.00000000E+00  0.00000000E+00  0.00000000E+00
  0.00000000E+00  0.00000000E+00  0.00000000E+00
  0.00000000E+00  0.00000000E+00  0.00000000E+00
  0.00000000E+00  0.00000000E+00  0.00000000E+00
  0.00000000E+00  0.00000000E+00  0.00000000E+00
  0.00000000E+00  0.00000000E+00  0.00000000E+00
  0.00000000E+00  0.00000000E+00  0.00000000E+00
  0.00000000E+00  0.00000000E+00  0.00000000E+00
  0.00000000E+00  0.00000000E+00  0.00000000E+00
  0.00000000E+00  0.00000000E+00  0.00000000E+00
  0.00000000E+00  0.00000000E+00  0.00000000E+00
  0.00000000E+00  0.00000000E+00  0.00000000E+00
  0.00000000E+00  0.00000000E+00  0.00000000E+00
  0.00000000E+00  0.00000000E+00  0.00000000E+00
  0.00000000E+00  0.00000000E+00  0.00000000E+00
  0.00000000E+00  0.00000000E+00  0.00000000E+00
