generated by pypospack                  
   4.98831000000000     
     1.3945546896483687    0.0009869415995461   -0.0030272018219321
     0.0015804877130091    2.0465393898622124    0.0073058512302536
    -0.0044211171592903    0.0072992281958083    2.0599999782736971
   Hf   Nb   Ta   Zr
    11     6    11     8
Direct
  0.4760983178977227  0.3290148122045574  0.9976939632633146
  0.7676182811501535  0.4940669829863860  0.1640473939970734
  0.2698625295721925  0.8216997561905587  0.8140226744891763
  0.7533421463179268  0.4991368740917494  0.8349474534661124
  0.2259386700273787  0.5007838724582195  0.1737650639956423
  0.9902261837988974  0.6784316899025146  0.3412307448357475
  0.4965901134794667  0.6746239604351391  0.0182868460336452
  0.5197917258465555  0.0289592156093746  0.6685335753792634
  0.9846882204001532  0.0086339438080291  0.6668075499692881
  0.7290877907050254  0.8139471302186280  0.8074260409206846
  0.4948920517418992  0.0002735047302020  0.0006486798977786
  0.7619418249242452  0.1762148246029233  0.4903364512544455
  0.2261787763757060  0.1646480528926058  0.1706736608649202
  0.7575351679716569  0.1849673606719671  0.8481824764748811
  0.2446193564412923  0.1699604938682496  0.8332227528084574
  0.0280158608174468  0.3296413369378519  0.9879495356537680
  0.7449729409531003  0.8277939648584195  0.5043721191537262
  0.7466746279702243  0.8394462525620929  0.1830422383193009
  0.2431292941934126  0.1637121201317473  0.4986706082880221
  0.0174304439806200  0.3239324004026159  0.3454370033538534
  0.2470170652867528  0.5054318558703548  0.8250900845198657
  0.2530475417477634  0.8347246699478168  0.1854277580427344
  0.4892165504711032  0.3305445570107522  0.6724541347297833
  0.2529710508481511  0.4963365541576222  0.4995966765453382
  0.5044443485163101  0.6717809108725959  0.3267881302360512
  0.4849818116167816  0.6381717826175082  0.6554190811282239
  0.0119582018715839  0.6571584369463568  0.6562315283271231
  0.9975387314790748  0.9964503858237661  0.3396186896914214
  0.4865491382642206  0.3243511826193262  0.3295934470312633
  0.7432046407039955  0.4954694309971296  0.4980779192394860
  0.0037975140734840  0.9921858848940227  0.9984130489762474
  0.5042139936839002  0.0048985735711447  0.3330863609527115
  0.2600187248492367  0.8362176976023302  0.5033932726367947
  0.7748080959280683  0.1718126762416165  0.1607435491319109
  0.0024414020040085  0.6866955687162446  0.0005533813099253
  0.0051578640904872  0.3278962825475861  0.6662141050820028
 
  0.00000000E+00  0.00000000E+00  0.00000000E+00
  0.00000000E+00  0.00000000E+00  0.00000000E+00
  0.00000000E+00  0.00000000E+00  0.00000000E+00
  0.00000000E+00  0.00000000E+00  0.00000000E+00
  0.00000000E+00  0.00000000E+00  0.00000000E+00
  0.00000000E+00  0.00000000E+00  0.00000000E+00
  0.00000000E+00  0.00000000E+00  0.00000000E+00
  0.00000000E+00  0.00000000E+00  0.00000000E+00
  0.00000000E+00  0.00000000E+00  0.00000000E+00
  0.00000000E+00  0.00000000E+00  0.00000000E+00
  0.00000000E+00  0.00000000E+00  0.00000000E+00
  0.00000000E+00  0.00000000E+00  0.00000000E+00
  0.00000000E+00  0.00000000E+00  0.00000000E+00
  0.00000000E+00  0.00000000E+00  0.00000000E+00
  0.00000000E+00  0.00000000E+00  0.00000000E+00
  0.00000000E+00  0.00000000E+00  0.00000000E+00
  0.00000000E+00  0.00000000E+00  0.00000000E+00
  0.00000000E+00  0.00000000E+00  0.00000000E+00
  0.00000000E+00  0.00000000E+00  0.00000000E+00
  0.00000000E+00  0.00000000E+00  0.00000000E+00
  0.00000000E+00  0.00000000E+00  0.00000000E+00
  0.00000000E+00  0.00000000E+00  0.00000000E+00
  0.00000000E+00  0.00000000E+00  0.00000000E+00
  0.00000000E+00  0.00000000E+00  0.00000000E+00
  0.00000000E+00  0.00000000E+00  0.00000000E+00
  0.00000000E+00  0.00000000E+00  0.00000000E+00
  0.00000000E+00  0.00000000E+00  0.00000000E+00
  0.00000000E+00  0.00000000E+00  0.00000000E+00
  0.00000000E+00  0.00000000E+00  0.00000000E+00
  0.00000000E+00  0.00000000E+00  0.00000000E+00
  0.00000000E+00  0.00000000E+00  0.00000000E+00
  0.00000000E+00  0.00000000E+00  0.00000000E+00
  0.00000000E+00  0.00000000E+00  0.00000000E+00
  0.00000000E+00  0.00000000E+00  0.00000000E+00
  0.00000000E+00  0.00000000E+00  0.00000000E+00
  0.00000000E+00  0.00000000E+00  0.00000000E+00
