generated by pypospack                  
   4.98831000000000     
     1.4006177869811185    0.0070578446677579    0.0052768247483965
     0.0103398304521073    2.0440989182433853    0.0032602115307064
     0.0077813395498506    0.0030659832519189    2.0556489076666939
   Zr   Hf   Ta   Nb
     8    11     5    12
Direct
  0.7750660883341371  0.8440555656677886  0.4982868969724935
  0.0143467980053082  0.0051852843028762  0.0069241093456816
  0.7701681574521291  0.1659576449147997  0.4977704256226425
  0.7329508360057921  0.1681766463411975  0.1666943687279910
  0.4897250954742116  0.3308621849585437  0.6558413138077687
  0.7624560783239988  0.8430648638460561  0.8279744654343272
  0.2355312340179683  0.5054131932822433  0.4935914479828250
  0.7371112055213686  0.4883673344548783  0.8374860462519041
  0.7478074278239052  0.1666408464080014  0.8340473812401450
  0.2657288591942022  0.5084553232674041  0.1707221903437900
  0.5267707949617739  0.6678400680916902  0.6518547083361540
  0.2537989223206119  0.5119000914729902  0.8388517874629984
  0.2365684902498113  0.1666374167876701  0.4797538588993170
  0.0151430083475548  0.3315207073525802  0.0061342112005303
  0.9653701343265475  0.6608060281566738  0.0184693642391157
  0.2608810060986914  0.8234197027758845  0.1709085672714950
  0.4752132327364872  0.0021148658277688  0.6687377993050879
  0.2467884605309964  0.8163310823210461  0.8358499771547139
  0.2357273129251517  0.8311007493706744  0.4913699332687004
  0.4836388046508156  0.0031501109437961  0.9971670250694074
  0.0396535177430336  0.0149656946684255  0.6782678319113087
  0.5260716019576347  0.6671763926034244  0.3409676305486766
  0.7666851409998637  0.4951819070888272  0.4936466234348985
  0.9710447419892977  0.6599499130638149  0.3225487313448981
  0.7298359766167908  0.4938415270276188  0.1752464917717927
  0.2614546929309129  0.1642167647553656  0.1775497086735760
  0.9737601930159250  0.6532927960653944  0.6635880501109100
  0.5298331415471774  0.6761143205401567  0.0096624298240457
  0.7337203085625625  0.8384229811257274  0.1732607874523155
  0.5104962366643057  0.3426619509245857  0.3418284479101927
  0.9889404731728010  0.3446832083396295  0.3213040691395622
  0.0114812913215679  0.3308726437242475  0.6772597033713573
  0.4714615205300728  0.3175183239909522  0.0019398976834353
  0.2529650306026433  0.1710768330589251  0.8364259963482727
  0.5036374859468705  0.9919099966901946  0.3283212886356769
  0.9981666990970917  0.9971210357881463  0.3097464339019789
 
  0.00000000E+00  0.00000000E+00  0.00000000E+00
  0.00000000E+00  0.00000000E+00  0.00000000E+00
  0.00000000E+00  0.00000000E+00  0.00000000E+00
  0.00000000E+00  0.00000000E+00  0.00000000E+00
  0.00000000E+00  0.00000000E+00  0.00000000E+00
  0.00000000E+00  0.00000000E+00  0.00000000E+00
  0.00000000E+00  0.00000000E+00  0.00000000E+00
  0.00000000E+00  0.00000000E+00  0.00000000E+00
  0.00000000E+00  0.00000000E+00  0.00000000E+00
  0.00000000E+00  0.00000000E+00  0.00000000E+00
  0.00000000E+00  0.00000000E+00  0.00000000E+00
  0.00000000E+00  0.00000000E+00  0.00000000E+00
  0.00000000E+00  0.00000000E+00  0.00000000E+00
  0.00000000E+00  0.00000000E+00  0.00000000E+00
  0.00000000E+00  0.00000000E+00  0.00000000E+00
  0.00000000E+00  0.00000000E+00  0.00000000E+00
  0.00000000E+00  0.00000000E+00  0.00000000E+00
  0.00000000E+00  0.00000000E+00  0.00000000E+00
  0.00000000E+00  0.00000000E+00  0.00000000E+00
  0.00000000E+00  0.00000000E+00  0.00000000E+00
  0.00000000E+00  0.00000000E+00  0.00000000E+00
  0.00000000E+00  0.00000000E+00  0.00000000E+00
  0.00000000E+00  0.00000000E+00  0.00000000E+00
  0.00000000E+00  0.00000000E+00  0.00000000E+00
  0.00000000E+00  0.00000000E+00  0.00000000E+00
  0.00000000E+00  0.00000000E+00  0.00000000E+00
  0.00000000E+00  0.00000000E+00  0.00000000E+00
  0.00000000E+00  0.00000000E+00  0.00000000E+00
  0.00000000E+00  0.00000000E+00  0.00000000E+00
  0.00000000E+00  0.00000000E+00  0.00000000E+00
  0.00000000E+00  0.00000000E+00  0.00000000E+00
  0.00000000E+00  0.00000000E+00  0.00000000E+00
  0.00000000E+00  0.00000000E+00  0.00000000E+00
  0.00000000E+00  0.00000000E+00  0.00000000E+00
  0.00000000E+00  0.00000000E+00  0.00000000E+00
  0.00000000E+00  0.00000000E+00  0.00000000E+00
