generated by pypospack                  
   4.98831000000000     
     1.3723920737170257    0.0001428302830798   -0.0003991071048386
     0.0003176056879368    2.0341666945193095   -0.0002853745015788
    -0.0005684733277087   -0.0003285854470996    2.0466173167467918
   Ta   Hf   Nb   Zr
    14     7     8     7
Direct
  0.2371515675883486  0.8416618917319154  0.5004495344703327
  0.7629420935580704  0.8429084076668425  0.4980467930387298
  0.2407796318302537  0.4979374321581709  0.1742179846818860
  0.9921491364623455  0.6694318569297767  0.0060731424069037
  0.2273925866069386  0.8344274341535222  0.1721309624880998
  0.7602834777142197  0.4953188979135521  0.4943690711222045
  0.7699335835776608  0.8361549830995106  0.1742795203542788
  0.9981312833682631  0.9908519320187321  0.0054761627296281
  0.7652175128727637  0.5124078987873462  0.8327554360444357
  0.0004619347462944  0.6683195497329880  0.3350176102464132
  0.2599155970296435  0.1586999307255418  0.4974547351111174
  0.2406351209051565  0.1439170975712845  0.8223084797779230
  0.4993987046031353  0.9910005287075409  0.6608246468748493
  0.4825149177242382  0.3479017563540766  0.3525678883654744
  0.4925081072346760  0.3403325567905169  0.6708424503069970
  0.5033005882970857  0.9894211640071933  0.0034159783744075
  0.7436449509903288  0.1647453118345072  0.4941853847996710
  0.0110508076599540  0.3353099640149100  0.6664580852661455
  0.7624917117133074  0.1519367941075054  0.8295113744509605
  0.5074112214932954  0.6692551799621376  0.6600777879570806
  0.4816031524543852  0.3398264541516079  0.9805727989215776
  0.7580092831251738  0.8341373533994051  0.8273411008385818
  0.2385681771004511  0.5047539851124639  0.4961185234318752
  0.4980665896654823  0.9872617130374235  0.3335430073747309
  0.0034266393225258  0.9924479915000917  0.3331386699160405
  0.0036849816645620  0.0001547302041115  0.6590692500759082
  0.9906837891866610  0.6648285555730700  0.6609127889998577
  0.0192111359393530  0.3422871177549865  0.3490848166236452
  0.2274137747458828  0.5253666890080209  0.8320404603518875
  0.7509487416465627  0.1672176810813220  0.1739101119433225
  0.2401059837994936  0.8326033779823586  0.8270687861702293
  0.7549326613752493  0.4871099697932313  0.1735180638886345
  0.4975463394938351  0.6680394624671372  0.3368216785042902
  0.0218128497869887  0.3349968731294010  0.9857856707422302
  0.5021002991873249  0.6684281363780187  0.0025805841356247
  0.2545670655300938  0.1686113411597839  0.1780286592140109
 
  0.00000000E+00  0.00000000E+00  0.00000000E+00
  0.00000000E+00  0.00000000E+00  0.00000000E+00
  0.00000000E+00  0.00000000E+00  0.00000000E+00
  0.00000000E+00  0.00000000E+00  0.00000000E+00
  0.00000000E+00  0.00000000E+00  0.00000000E+00
  0.00000000E+00  0.00000000E+00  0.00000000E+00
  0.00000000E+00  0.00000000E+00  0.00000000E+00
  0.00000000E+00  0.00000000E+00  0.00000000E+00
  0.00000000E+00  0.00000000E+00  0.00000000E+00
  0.00000000E+00  0.00000000E+00  0.00000000E+00
  0.00000000E+00  0.00000000E+00  0.00000000E+00
  0.00000000E+00  0.00000000E+00  0.00000000E+00
  0.00000000E+00  0.00000000E+00  0.00000000E+00
  0.00000000E+00  0.00000000E+00  0.00000000E+00
  0.00000000E+00  0.00000000E+00  0.00000000E+00
  0.00000000E+00  0.00000000E+00  0.00000000E+00
  0.00000000E+00  0.00000000E+00  0.00000000E+00
  0.00000000E+00  0.00000000E+00  0.00000000E+00
  0.00000000E+00  0.00000000E+00  0.00000000E+00
  0.00000000E+00  0.00000000E+00  0.00000000E+00
  0.00000000E+00  0.00000000E+00  0.00000000E+00
  0.00000000E+00  0.00000000E+00  0.00000000E+00
  0.00000000E+00  0.00000000E+00  0.00000000E+00
  0.00000000E+00  0.00000000E+00  0.00000000E+00
  0.00000000E+00  0.00000000E+00  0.00000000E+00
  0.00000000E+00  0.00000000E+00  0.00000000E+00
  0.00000000E+00  0.00000000E+00  0.00000000E+00
  0.00000000E+00  0.00000000E+00  0.00000000E+00
  0.00000000E+00  0.00000000E+00  0.00000000E+00
  0.00000000E+00  0.00000000E+00  0.00000000E+00
  0.00000000E+00  0.00000000E+00  0.00000000E+00
  0.00000000E+00  0.00000000E+00  0.00000000E+00
  0.00000000E+00  0.00000000E+00  0.00000000E+00
  0.00000000E+00  0.00000000E+00  0.00000000E+00
  0.00000000E+00  0.00000000E+00  0.00000000E+00
  0.00000000E+00  0.00000000E+00  0.00000000E+00
