generated by pypospack
   4.98831
  1.411946   0.002134   0.002220
  0.003206   2.057458   0.002984
  0.003144   0.002943   2.061257
 Hf Nb Zr Ta
 9 4 13 10
Direct
  0.493295   0.005879   0.654826
  0.282814   0.171934   0.849928
  0.992148   0.998844   0.997791
  0.005266   0.000250   0.684073
  0.005966   0.667539   0.324007
  0.510716   0.997219   0.335976
  0.505985   0.321400   0.650319
  0.973961   0.326834   0.997544
  0.738856   0.512452   0.831848
  0.746930   0.158613   0.167902
  0.263947   0.831724   0.837152
  0.537608   0.327507   0.003416
  0.511971   0.994285   0.006383
  0.720709   0.162973   0.841257
  0.515225   0.333007   0.343169
  0.992897   0.324804   0.674548
  0.276332   0.484348   0.153001
  0.984497   0.348226   0.327139
  0.491612   0.667265   0.334039
  0.211883   0.156718   0.483681
  0.006421   0.670012   0.011373
  0.757489   0.520518   0.522921
  0.761294   0.830367   0.507214
  0.259538   0.496823   0.833178
  0.255563   0.162174   0.162283
  0.735843   0.822958   0.830699
  0.736687   0.835117   0.160124
  0.984723   0.985750   0.316140
  0.261111   0.846404   0.165019
  0.783934   0.153695   0.487752
  0.491922   0.676490   0.008249
  0.464207   0.678179   0.660688
  0.242135   0.512930   0.513656
  0.032695   0.679736   0.671756
  0.726712   0.504200   0.152603
  0.237092   0.832829   0.498339
