generated by pypospack                  
   4.98831000000000     
     1.4066110707622397    0.0053922907217791   -0.0089175977742936
     0.0079136352566183    2.0588904206249410   -0.0026125131429947
    -0.0132722277184749   -0.0026724728745170    2.0596670249823537
   Hf   Zr   Nb   Ta
    10    11     5    10
Direct
  0.9666316290291687  0.3182672467729439  0.6802205042239631
  0.7465353657167191  0.1561292611448140  0.1749011586253924
  0.0001313733209710  0.0005568110774173  0.6779227673483044
  0.0066507251094410  0.3434684315543872  0.3155262072296885
  0.2253029193734247  0.5026952244137046  0.5146446005872074
  0.0071668714382767  0.6623362617737626  0.3123255969861272
  0.4788550195758881  0.9781383340839103  0.0097113613612120
  0.4822279866450576  0.9958947854769347  0.3340494653774509
  0.5321503076080774  0.3371595248501503  0.6501823386988406
  0.9967666181223473  0.3335550770663239  0.0070087654946375
  0.4994656499320688  0.6684009746518478  0.3289269623262926
  0.7129638365224039  0.1540050206774422  0.8447956925428572
  0.0104658782302574 -0.0003913730648568 -0.0000945226832964
  0.2351557174767803  0.1671787974252547  0.5042880408590954
  0.2766009236646265  0.1757751969884072  0.8308500815015359
  0.9933767848823241  0.6690184394016941  0.0009186939011029
  0.5041351206175146  0.3354595135384666  0.3377563690825548
  0.7910327602665000  0.5155342432115535  0.5067346771980507
  0.5015872340326188  0.6728619225215097  0.6644853006864279
  0.7680693675148860  0.8383794233796206  0.4982461036855783
  0.2535470003964928  0.4981783184115520  0.8336295241140608
  0.0022282773428465  0.6827668759078050  0.6843111382940961
  0.2537368333399477  0.8247537355782163  0.8244183832453277
  0.5025688353173419  0.3434578564818480  0.0061160097301857
  0.7400217490725697  0.5073070071783992  0.8448078096898923
  0.2542545789583114  0.1699574393251420  0.1677024906248112
  0.7388427225847303  0.8351725459611120  0.8296005794197323
  0.7579409641637267  0.8454978021250252  0.1709339307579470
  0.0171284538194059  0.9938180553054189  0.3277299852094239
  0.2795019628112520  0.5018993285214347  0.1473409807687099
  0.2405039745277970  0.8285820925513312  0.1739402754696330
  0.2348138025190259  0.8348477309434107  0.5004834778270958
  0.4924312407878383  0.9848056817033871  0.6614766412013637
  0.7256176481118177  0.4990575303099643  0.1489745726883327
  0.7679559611128278  0.1519967821947266  0.4870907234983317
  0.5036369060547162  0.6734821005559630 -0.0019466875719620
 
  0.00000000E+00  0.00000000E+00  0.00000000E+00
  0.00000000E+00  0.00000000E+00  0.00000000E+00
  0.00000000E+00  0.00000000E+00  0.00000000E+00
  0.00000000E+00  0.00000000E+00  0.00000000E+00
  0.00000000E+00  0.00000000E+00  0.00000000E+00
  0.00000000E+00  0.00000000E+00  0.00000000E+00
  0.00000000E+00  0.00000000E+00  0.00000000E+00
  0.00000000E+00  0.00000000E+00  0.00000000E+00
  0.00000000E+00  0.00000000E+00  0.00000000E+00
  0.00000000E+00  0.00000000E+00  0.00000000E+00
  0.00000000E+00  0.00000000E+00  0.00000000E+00
  0.00000000E+00  0.00000000E+00  0.00000000E+00
  0.00000000E+00  0.00000000E+00  0.00000000E+00
  0.00000000E+00  0.00000000E+00  0.00000000E+00
  0.00000000E+00  0.00000000E+00  0.00000000E+00
  0.00000000E+00  0.00000000E+00  0.00000000E+00
  0.00000000E+00  0.00000000E+00  0.00000000E+00
  0.00000000E+00  0.00000000E+00  0.00000000E+00
  0.00000000E+00  0.00000000E+00  0.00000000E+00
  0.00000000E+00  0.00000000E+00  0.00000000E+00
  0.00000000E+00  0.00000000E+00  0.00000000E+00
  0.00000000E+00  0.00000000E+00  0.00000000E+00
  0.00000000E+00  0.00000000E+00  0.00000000E+00
  0.00000000E+00  0.00000000E+00  0.00000000E+00
  0.00000000E+00  0.00000000E+00  0.00000000E+00
  0.00000000E+00  0.00000000E+00  0.00000000E+00
  0.00000000E+00  0.00000000E+00  0.00000000E+00
  0.00000000E+00  0.00000000E+00  0.00000000E+00
  0.00000000E+00  0.00000000E+00  0.00000000E+00
  0.00000000E+00  0.00000000E+00  0.00000000E+00
  0.00000000E+00  0.00000000E+00  0.00000000E+00
  0.00000000E+00  0.00000000E+00  0.00000000E+00
  0.00000000E+00  0.00000000E+00  0.00000000E+00
  0.00000000E+00  0.00000000E+00  0.00000000E+00
  0.00000000E+00  0.00000000E+00  0.00000000E+00
  0.00000000E+00  0.00000000E+00  0.00000000E+00
