generated by pypospack
   4.98831
  1.419535   0.006891  -0.005216
  0.010176   2.058423  -0.005770
 -0.007947  -0.005863   2.056170
 Hf Zr Nb Ta
 10 11 5 10
Direct
  0.968554   0.317497   0.678484
  0.744629   0.155171   0.168197
  0.016769   0.000845   0.676358
  0.993166   0.343846   0.316241
  0.227280   0.497656   0.511599
  0.000189   0.660704   0.313635
  0.462582   0.985033   0.017312
  0.487289  -0.005907   0.331787
  0.536595   0.336354   0.651203
  0.996506   0.335225   0.005554
  0.502649   0.667830   0.330368
  0.719315   0.151122   0.843727
  0.021351   0.003321   0.002211
  0.237529   0.170148   0.495100
  0.280566   0.180143   0.828375
 -0.000720   0.665377   0.003261
  0.509382   0.335527   0.338160
  0.792539   0.518872   0.511991
  0.494878   0.671945   0.660464
  0.767939   0.842150   0.502754
  0.257663   0.495291   0.832747
  0.018770   0.682994   0.681040
  0.263582   0.825937   0.825192
  0.503712   0.341714   0.004624
  0.744336   0.509641   0.842154
  0.243566   0.170492   0.179813
  0.734665   0.837662   0.837531
  0.754541   0.844523   0.159810
  0.006122   0.993678   0.327759
  0.280524   0.502064   0.151103
  0.237017   0.825468   0.181204
  0.232272   0.833154   0.495761
  0.481201   0.989046   0.655421
  0.721528   0.498754   0.147063
  0.761926   0.146836   0.490995
  0.499591   0.669891   0.001012
