generated by pypospack
   4.98831
  2.000000   0.000000   0.000000
  0.000000   2.000000   0.000000
  0.000000   0.000000   2.000000
 Zr Ta Nb Hf
 8 3 1 4
Direct
  0.000000   0.000000   0.000000
  0.250000   0.750000   0.250000
  0.250000   0.750000   0.750000
  0.750000   0.250000   0.250000
  0.500000   0.500000   0.000000
  0.750000   0.750000   0.250000
  0.500000   0.500000   0.500000
  0.750000   0.750000   0.750000
  0.000000   0.000000   0.500000
  0.000000   0.500000   0.000000
  0.750000   0.250000   0.750000
  0.500000   0.000000   0.000000
  0.250000   0.250000   0.250000
  0.250000   0.250000   0.750000
  0.000000   0.500000   0.500000
  0.500000   0.000000   0.500000
