generated by pypospack                  
   4.98831000000000     
     1.4195349016287266    0.0068910822872885   -0.0052164846100455
     0.0101759994043420    2.0584231291920814   -0.0057702532709453
    -0.0079471827502516   -0.0058629941070855    2.0561698037316938
   Hf   Zr   Nb   Ta
    11    11     5     9
Direct
  0.9685538898795366  0.3174968055885719  0.6784835223205462
  0.7446294503632873  0.1551707001329799  0.1681967205630100
  0.0167688759288198  0.0008452451999452  0.6763582007827040
  0.9931657941037386  0.3438462105438458  0.3162406616658052
  0.2272800609555593  0.4976563843670586  0.5115994011861987
  0.0001893261636844  0.6607042620190892  0.3136349666963777
  0.4625817411100783  0.9850332356603086  0.0173116006175765
  0.4872893893145396 -0.0059070605159790  0.3317870874806264
  0.5365952915382367  0.3363536087006720  0.6512030176913017
  0.7346653733013382  0.8376623935454742  0.8375305221191804
  0.9965063281994362  0.3352253385652671  0.0055536705012342
  0.5026490807443451  0.6678302404182639  0.3303683826868775
  0.7193152997817449  0.1511216709285236  0.8437272873306371
  0.0213514306116455  0.0033207760448608  0.0022107198742028
  0.2375291570905493  0.1701476587315762  0.4950996663331759
  0.2805660679744912  0.1801428596141887  0.8283745743394958
 -0.0007203546861875  0.6653767090310070  0.0032609651643153
  0.5093815744329558  0.3355266619409910  0.3381602859597543
  0.7925389334521541  0.5188724140996550  0.5119905448737900
  0.4948775844219236  0.6719450772477292  0.6604642776793195
  0.7679385832856088  0.8421501614784430  0.5027537494192401
  0.2576631487961464  0.4952907367309670  0.8327473994488465
  0.0187696722749804  0.6829944256137469  0.6810401170328648
  0.2635823948670058  0.8259373269999399  0.8251916090521723
  0.5037115331647782  0.3417135951830832  0.0046237153957606
  0.7443357814769488  0.5096406233762877  0.8421536224095947
  0.2435664592552536  0.1704924471283338  0.1798134137379077
  0.7545410338325322  0.8445229337545603  0.1598103716409422
  0.0061216648103410  0.9936775983848416  0.3277586567788864
  0.2805241938957451  0.5020637630979302  0.1511032806111335
  0.2370169177646714  0.8254683631332735  0.1812037126046458
  0.2322717382611851  0.8331543697820026  0.4957611503688997
  0.4812007552240083  0.9890458111711338  0.6554208786436679
  0.7215280324614878  0.4987544079180283  0.1470634979645181
  0.7619258572541331  0.1468363430739811  0.4909946955901948
  0.4995909386933088  0.6698909013094134  0.0010120534345910
 
  0.00000000E+00  0.00000000E+00  0.00000000E+00
  0.00000000E+00  0.00000000E+00  0.00000000E+00
  0.00000000E+00  0.00000000E+00  0.00000000E+00
  0.00000000E+00  0.00000000E+00  0.00000000E+00
  0.00000000E+00  0.00000000E+00  0.00000000E+00
  0.00000000E+00  0.00000000E+00  0.00000000E+00
  0.00000000E+00  0.00000000E+00  0.00000000E+00
  0.00000000E+00  0.00000000E+00  0.00000000E+00
  0.00000000E+00  0.00000000E+00  0.00000000E+00
  0.00000000E+00  0.00000000E+00  0.00000000E+00
  0.00000000E+00  0.00000000E+00  0.00000000E+00
  0.00000000E+00  0.00000000E+00  0.00000000E+00
  0.00000000E+00  0.00000000E+00  0.00000000E+00
  0.00000000E+00  0.00000000E+00  0.00000000E+00
  0.00000000E+00  0.00000000E+00  0.00000000E+00
  0.00000000E+00  0.00000000E+00  0.00000000E+00
  0.00000000E+00  0.00000000E+00  0.00000000E+00
  0.00000000E+00  0.00000000E+00  0.00000000E+00
  0.00000000E+00  0.00000000E+00  0.00000000E+00
  0.00000000E+00  0.00000000E+00  0.00000000E+00
  0.00000000E+00  0.00000000E+00  0.00000000E+00
  0.00000000E+00  0.00000000E+00  0.00000000E+00
  0.00000000E+00  0.00000000E+00  0.00000000E+00
  0.00000000E+00  0.00000000E+00  0.00000000E+00
  0.00000000E+00  0.00000000E+00  0.00000000E+00
  0.00000000E+00  0.00000000E+00  0.00000000E+00
  0.00000000E+00  0.00000000E+00  0.00000000E+00
  0.00000000E+00  0.00000000E+00  0.00000000E+00
  0.00000000E+00  0.00000000E+00  0.00000000E+00
  0.00000000E+00  0.00000000E+00  0.00000000E+00
  0.00000000E+00  0.00000000E+00  0.00000000E+00
  0.00000000E+00  0.00000000E+00  0.00000000E+00
  0.00000000E+00  0.00000000E+00  0.00000000E+00
  0.00000000E+00  0.00000000E+00  0.00000000E+00
  0.00000000E+00  0.00000000E+00  0.00000000E+00
  0.00000000E+00  0.00000000E+00  0.00000000E+00
