generated by pypospack
   4.98831
  1.385955   0.001492  -0.002941
  0.002170   2.064923   0.001020
 -0.004468   0.000991   2.067026
 Zr Hf Nb Ta
 9 11 6 10
Direct
  0.736071   0.167172   0.842052
  0.991107   0.981463   0.996586
  0.220162   0.164794   0.507686
  0.256480   0.173289   0.837263
  0.001410   0.666311   0.002745
  0.502750   0.335840   0.341911
  0.773659   0.516769   0.501825
  0.495338   0.667155   0.677608
  0.759906   0.829355   0.499505
  0.748731   0.173732   0.157591
  0.251152   0.165728   0.156860
  0.001529   0.993427   0.674135
  0.000848   0.340464   0.325102
  0.224419   0.510122   0.517277
  0.021374   0.667837   0.312831
  0.507690   0.971405   0.999760
  0.504863   0.004827   0.344091
  0.500535   0.667887   0.000527
  0.484875   0.669400   0.318890
  0.517056   0.334969   0.656971
  0.758536   0.837159   0.186848
  0.007591   0.674141   0.684870
  0.253006   0.831857   0.819610
  0.501825   0.351165   0.992588
  0.757033   0.495633   0.838460
  0.748732   0.827318   0.816422
  0.995614   0.347644  -0.000686
 -0.001984   0.996069   0.334786
  0.262792   0.482506   0.147350
  0.975450   0.333100   0.676259
  0.239152   0.489926   0.832933
  0.244992   0.859390   0.180369
  0.244265   0.831728   0.500809
  0.495627   0.992972   0.660471
  0.739181   0.487082   0.154618
  0.778244   0.160374   0.503077
