generated by pypospack                  
   4.98831000000000     
     1.3994179128985373   -0.0007210083060418    0.0093386376000148
    -0.0010828638850824    2.0542229293747942    0.0027887556881154
     0.0137007402658651    0.0025801275150218    2.0493598607209425
   Ta   Hf   Nb   Zr
     6     9    11    10
Direct
  0.7328660258417411  0.4978319129085628  0.1736630412876161
  0.5386401674044192  0.6651426624474790  0.0114500971667930
  0.0356464493140883  0.9911786619723152  0.6716335910605257
  0.5176974473340246  0.6689176720658001  0.3363935526137013
  0.7513399307145978  0.5074224195015159  0.4967924502915308
  0.9840239541016533  0.6670480725772243  0.3301816951748471
  0.2247256969961536  0.1686705277196067  0.4867931393081570
  0.2658126075106905  0.5059868419364713  0.1679502658872894
  0.0072516219625144  0.3381688644680210 -0.0014471657512766
  0.9760928034195311  0.6627900533685376  0.0062783185158339
  0.2611682922540869  0.8233029008949971  0.1691209744136731
  0.4676873073819972  0.0056374080315226  0.6591798161812350
  0.7548428488338067  0.8331135935574420  0.5052445260264197
  0.0279144653992045  0.6652996699074936  0.6634109891789965
  0.2738018811923323  0.8169521630342976  0.8471061764808466
  0.4855284168339116  0.6585206276416727  0.6546459933896336
  0.9924389146094783  0.9813265407693874  0.3229082502926888
  0.4973569879646788  0.9865885340499110  0.3440659947927672
  0.7424332536709076  0.8322074867808552  0.1819275943111335
  0.5141812301328306  0.3461014356002808  0.3451540833633216
  0.2669417538793267  0.5035379486851937  0.8399329851119011
  0.9760918700138030  0.3544522013022216  0.3218167678976313
  0.0178068212201548  0.3419819953844851  0.6797121937064258
  0.2505252658158577  0.8331823778606892  0.4877105062309334
  0.4832519934490476  0.3303904485238006  0.9913471000991215
  0.2343154069438725  0.1713916635794530  0.8302795685774466
  0.2487206639530722  0.1723386455138371  0.1843820322897682
  0.9958660786937966 -0.0000058388952275  0.0045756870789672
  0.7665748098228983  0.1627181628717072  0.4996701631982886
  0.7624456170065863  0.1690377018458446  0.8218070637851943
  0.5008692608391312  0.0097740508232596  0.9996413693730056
  0.7320878130064450  0.1765117223527385  0.1764283811447205
  0.7397293256949917  0.4961991014073572  0.8252578409824757
  0.4836956129385442  0.3280619010549691  0.6626546244209368
  0.7443723663090063  0.8339118958372760  0.8167560547641335
  0.2452550375408259  0.4943159726190136  0.4855702773533050
 
  0.00000000E+00  0.00000000E+00  0.00000000E+00
  0.00000000E+00  0.00000000E+00  0.00000000E+00
  0.00000000E+00  0.00000000E+00  0.00000000E+00
  0.00000000E+00  0.00000000E+00  0.00000000E+00
  0.00000000E+00  0.00000000E+00  0.00000000E+00
  0.00000000E+00  0.00000000E+00  0.00000000E+00
  0.00000000E+00  0.00000000E+00  0.00000000E+00
  0.00000000E+00  0.00000000E+00  0.00000000E+00
  0.00000000E+00  0.00000000E+00  0.00000000E+00
  0.00000000E+00  0.00000000E+00  0.00000000E+00
  0.00000000E+00  0.00000000E+00  0.00000000E+00
  0.00000000E+00  0.00000000E+00  0.00000000E+00
  0.00000000E+00  0.00000000E+00  0.00000000E+00
  0.00000000E+00  0.00000000E+00  0.00000000E+00
  0.00000000E+00  0.00000000E+00  0.00000000E+00
  0.00000000E+00  0.00000000E+00  0.00000000E+00
  0.00000000E+00  0.00000000E+00  0.00000000E+00
  0.00000000E+00  0.00000000E+00  0.00000000E+00
  0.00000000E+00  0.00000000E+00  0.00000000E+00
  0.00000000E+00  0.00000000E+00  0.00000000E+00
  0.00000000E+00  0.00000000E+00  0.00000000E+00
  0.00000000E+00  0.00000000E+00  0.00000000E+00
  0.00000000E+00  0.00000000E+00  0.00000000E+00
  0.00000000E+00  0.00000000E+00  0.00000000E+00
  0.00000000E+00  0.00000000E+00  0.00000000E+00
  0.00000000E+00  0.00000000E+00  0.00000000E+00
  0.00000000E+00  0.00000000E+00  0.00000000E+00
  0.00000000E+00  0.00000000E+00  0.00000000E+00
  0.00000000E+00  0.00000000E+00  0.00000000E+00
  0.00000000E+00  0.00000000E+00  0.00000000E+00
  0.00000000E+00  0.00000000E+00  0.00000000E+00
  0.00000000E+00  0.00000000E+00  0.00000000E+00
  0.00000000E+00  0.00000000E+00  0.00000000E+00
  0.00000000E+00  0.00000000E+00  0.00000000E+00
  0.00000000E+00  0.00000000E+00  0.00000000E+00
  0.00000000E+00  0.00000000E+00  0.00000000E+00
