generated by pypospack                  
   4.98831000000000     
     1.3924945120262475    0.0004665530830393   -0.0003593725205517
     0.0006327048611843    2.0694365279855269    0.0021062866559082
    -0.0004021767453353    0.0020053539639832    2.0428444233766889
   Ta   Zr   Nb   Hf
     8    11     9     8
Direct
  0.7341716237476679  0.5055457961869207  0.1735231264621926
  0.5143159837791160  0.6680686908057876  0.9896698353952390
  0.2641185037846484  0.1789714578373043  0.1723566751355261
  0.0270809183337716  0.0033749181647308  0.3209012828069889
  0.0252391734031448  0.9770598038003787  0.6807371900979279
  0.7512262334784299  0.4961079649834314  0.4915837902883529
  0.4972531402110675  0.3444126375082932  0.6552548295422331
  0.5098288042976761  0.6680764603448458  0.3505240279569372
  0.7644585160417918  0.1703039821781634  0.5032276471920665
  0.2493664492371462  0.1794424217326535  0.8255839666017115
  0.7538206222285688  0.1709093620917320  0.8218848753017807
  0.0057847627249969  0.0004171139467799  0.0027915790119537
  0.2299806142092087  0.1772124602051223  0.5029211902772388
  0.2636819768612266  0.5054968058428708  0.1736118138413092
  0.5028449716066440  0.9952263958729130  0.9939314761052495
  0.7365446614879368  0.1701865889713491  0.1743203914626129
  0.4754340171245573  0.9982190467086556  0.3421977624062393
  0.7335832702519088  0.4853854919362577  0.8327033270313957
  0.4951267094554176  0.6680844391472818  0.6626370380712899
  0.5050834975245638  0.3343046795826153  0.3361202839625647
  0.2633244335867477  0.4914006727698658  0.8320410778309615
  0.9908345996294377  0.3353933353907984  0.3145570310879789
  0.9990054629114743  0.3573702854366491  0.6684331680683869
  0.9872257052244112  0.6619251185622540  0.3384127901945756
  0.2232288747436835  0.8288903243475442  0.4910663800274394
  0.2557063450317869  0.8252775041300134  0.8487401628381727
  0.4916278290445358  0.3358228244336627  0.0039124165952289
  0.7516041560335762  0.8367544225584618  0.8264136844553671
  0.0045705091891924  0.3387610561274893  0.0113671737904128
  0.9895531138949324  0.6596270249073038  0.9888258230836668
  0.2554253909656319  0.8156168650898995  0.1678399382751092
  0.4801681058466197  0.9884489090873024  0.6685871770635634
  0.7515976483800002  0.8236725309635483  0.1776981445961180
  0.7728637842156323  0.8437636649122872  0.4950017611150827
  0.2405887603822055  0.4947287909013440  0.4883843542211861
  0.0037398311306414  0.6657431525335019  0.6722408078059374
 
  0.00000000E+00  0.00000000E+00  0.00000000E+00
  0.00000000E+00  0.00000000E+00  0.00000000E+00
  0.00000000E+00  0.00000000E+00  0.00000000E+00
  0.00000000E+00  0.00000000E+00  0.00000000E+00
  0.00000000E+00  0.00000000E+00  0.00000000E+00
  0.00000000E+00  0.00000000E+00  0.00000000E+00
  0.00000000E+00  0.00000000E+00  0.00000000E+00
  0.00000000E+00  0.00000000E+00  0.00000000E+00
  0.00000000E+00  0.00000000E+00  0.00000000E+00
  0.00000000E+00  0.00000000E+00  0.00000000E+00
  0.00000000E+00  0.00000000E+00  0.00000000E+00
  0.00000000E+00  0.00000000E+00  0.00000000E+00
  0.00000000E+00  0.00000000E+00  0.00000000E+00
  0.00000000E+00  0.00000000E+00  0.00000000E+00
  0.00000000E+00  0.00000000E+00  0.00000000E+00
  0.00000000E+00  0.00000000E+00  0.00000000E+00
  0.00000000E+00  0.00000000E+00  0.00000000E+00
  0.00000000E+00  0.00000000E+00  0.00000000E+00
  0.00000000E+00  0.00000000E+00  0.00000000E+00
  0.00000000E+00  0.00000000E+00  0.00000000E+00
  0.00000000E+00  0.00000000E+00  0.00000000E+00
  0.00000000E+00  0.00000000E+00  0.00000000E+00
  0.00000000E+00  0.00000000E+00  0.00000000E+00
  0.00000000E+00  0.00000000E+00  0.00000000E+00
  0.00000000E+00  0.00000000E+00  0.00000000E+00
  0.00000000E+00  0.00000000E+00  0.00000000E+00
  0.00000000E+00  0.00000000E+00  0.00000000E+00
  0.00000000E+00  0.00000000E+00  0.00000000E+00
  0.00000000E+00  0.00000000E+00  0.00000000E+00
  0.00000000E+00  0.00000000E+00  0.00000000E+00
  0.00000000E+00  0.00000000E+00  0.00000000E+00
  0.00000000E+00  0.00000000E+00  0.00000000E+00
  0.00000000E+00  0.00000000E+00  0.00000000E+00
  0.00000000E+00  0.00000000E+00  0.00000000E+00
  0.00000000E+00  0.00000000E+00  0.00000000E+00
  0.00000000E+00  0.00000000E+00  0.00000000E+00
