generated by pypospack                  
   4.98831000000000     
     1.3951427575089959   -0.0003851703099063    0.0006606618906226
    -0.0003974179078044    2.0727251298487928    0.0046542794920015
     0.0010148053973478    0.0046090544711786    2.0473938492732158
   Nb   Hf   Ta   Zr
     5    12    11     8
Direct
  0.0160012411218922  0.3352799120767781  0.6683330077961118
  0.2404734731710242  0.1702036715435057  0.1627418987112073
  0.9772364075833896  0.6747567875021384  0.0046055106028461
  0.7411679148604166  0.1899214291538321  0.8263939434174624
  0.2557443239605026  0.1738609550872722  0.8259069399860295
  0.7556478034108220  0.4969049324540138  0.1722490358706019
  0.2366068470948826  0.8242285516124279  0.8423622306669996
  0.7273634901055656  0.8311883929926677  0.4958071787415062
  0.7506438491803129  0.4935288168536489  0.8322075985803766
  0.2380506612636545  0.5049196135792793  0.1508261549059976
  0.0195013894761165  0.6718909725717442  0.3415897622282754
  0.7649004591434354  0.1770481328319585  0.4955492535618087
  0.4620804060863723  0.3323334642882587  0.3349079752490662
  0.0157103025277753  0.9938306412253454  0.3310463907248931
  0.5160933516718781  0.6723358782619526  0.0020548285169146
  0.5103709909787248  0.0114768650471109  0.6804593452596239
  0.9916136797296561  0.0051675367915544  0.6746657207874689
  0.7501651330254926  0.8231426347093539  0.1821463765016385
  0.2327713964623797  0.1740461815135620  0.5100130167617692
  0.0368429430979045  0.3380014799639103  0.3402288248852950
  0.2602565433849025  0.4952079451574925  0.8304483480455039
  0.2392698937269803  0.8223505990908094  0.1518616286726620
  0.4891596166879861  0.3291626159778186  0.6673267169392947
  0.4855262325645568  0.3254778210083009  0.9918629130981662
  0.2713045029907375  0.4989626022111786  0.5109772110666042
  0.4862740148161000  0.6653167566428976  0.3152490767327733
  0.5002848572026032  0.6580934920021737  0.6821934583596830
  0.7595756314580800  0.8165936643068510  0.8245389234696461
  0.5017755511768045  0.0034142208339242  0.9987042353139337
  0.7408950593163772  0.4930817260218732  0.4946327917232876
  0.9850215489486844  0.0007497074490398  0.0000396315424047
  0.0118394433676869  0.3181355145162948  0.9906978403688749
  0.0092459034200465  0.6617377168011197  0.6550045270852237
  0.4774094549715233  0.0050587961610416  0.3224352721310324
  0.2895767862843430  0.8287048075307204  0.5075875737902235
  0.7535988957304045  0.1838901642281496  0.1823448579047850
 
  0.00000000E+00  0.00000000E+00  0.00000000E+00
  0.00000000E+00  0.00000000E+00  0.00000000E+00
  0.00000000E+00  0.00000000E+00  0.00000000E+00
  0.00000000E+00  0.00000000E+00  0.00000000E+00
  0.00000000E+00  0.00000000E+00  0.00000000E+00
  0.00000000E+00  0.00000000E+00  0.00000000E+00
  0.00000000E+00  0.00000000E+00  0.00000000E+00
  0.00000000E+00  0.00000000E+00  0.00000000E+00
  0.00000000E+00  0.00000000E+00  0.00000000E+00
  0.00000000E+00  0.00000000E+00  0.00000000E+00
  0.00000000E+00  0.00000000E+00  0.00000000E+00
  0.00000000E+00  0.00000000E+00  0.00000000E+00
  0.00000000E+00  0.00000000E+00  0.00000000E+00
  0.00000000E+00  0.00000000E+00  0.00000000E+00
  0.00000000E+00  0.00000000E+00  0.00000000E+00
  0.00000000E+00  0.00000000E+00  0.00000000E+00
  0.00000000E+00  0.00000000E+00  0.00000000E+00
  0.00000000E+00  0.00000000E+00  0.00000000E+00
  0.00000000E+00  0.00000000E+00  0.00000000E+00
  0.00000000E+00  0.00000000E+00  0.00000000E+00
  0.00000000E+00  0.00000000E+00  0.00000000E+00
  0.00000000E+00  0.00000000E+00  0.00000000E+00
  0.00000000E+00  0.00000000E+00  0.00000000E+00
  0.00000000E+00  0.00000000E+00  0.00000000E+00
  0.00000000E+00  0.00000000E+00  0.00000000E+00
  0.00000000E+00  0.00000000E+00  0.00000000E+00
  0.00000000E+00  0.00000000E+00  0.00000000E+00
  0.00000000E+00  0.00000000E+00  0.00000000E+00
  0.00000000E+00  0.00000000E+00  0.00000000E+00
  0.00000000E+00  0.00000000E+00  0.00000000E+00
  0.00000000E+00  0.00000000E+00  0.00000000E+00
  0.00000000E+00  0.00000000E+00  0.00000000E+00
  0.00000000E+00  0.00000000E+00  0.00000000E+00
  0.00000000E+00  0.00000000E+00  0.00000000E+00
  0.00000000E+00  0.00000000E+00  0.00000000E+00
  0.00000000E+00  0.00000000E+00  0.00000000E+00
