generated by pypospack
   4.98831
  1.393219  -0.002974   0.003790
 -0.004319   2.043204   0.002100
  0.005666   0.002013   2.037365
 Ta Hf Zr Nb
 11 11 7 7
Direct
  0.252241   0.170451   0.512139
  0.037090   0.326334   0.343835
  0.015296   0.332987   0.667863
  0.260535   0.498097   0.829541
  0.251385   0.825711   0.152663
  0.484659   0.333548   0.666079
  0.485017   0.323081   0.993352
  0.251151   0.499928   0.506380
  0.478954   0.669008   0.325707
  0.506078  -0.000524   0.003496
  0.491147   0.656970   0.672146
  0.762631   0.493336   0.171641
  0.258857   0.829535   0.839942
  0.717304   0.831430   0.502347
  0.740466   0.489681   0.830404
  0.227575   0.507895   0.155911
  0.020723   0.684473   0.343213
  0.752261   0.176007   0.496761
  0.464063   0.338031   0.331212
  0.019197   0.997667   0.335719
  0.750531   0.180454   0.175081
  0.521689   0.670975   0.006768
  0.748720   0.495249   0.496546
  0.992081   0.000657   0.000122
  0.015330   0.317280   0.981570
  0.004709   0.666341   0.665089
  0.483774  -0.000321   0.321891
  0.999392   0.000391   0.666795
  0.287436   0.830640   0.512597
  0.738778   0.835476   0.831509
  0.257217   0.166529   0.158237
  0.974023   0.679562   0.001754
  0.500167   0.007407   0.676460
  0.734116   0.170392   0.826001
  0.748307   0.835144   0.173000
  0.267093   0.160187   0.826229
