generated by pypospack
   4.98831
  1.393003   0.005589   0.002027
  0.008306   2.049066   0.001533
  0.003081   0.001474   2.052822
 Ta Hf Nb Zr
 9 8 10 9
Direct
  0.509631   0.672001   0.992881
  0.266814   0.179851   0.171424
  0.034767   0.006544   0.330867
  0.024204   0.994438   0.674065
  0.256028   0.175843   0.826906
  0.514154   0.345650   0.339214
  0.760400   0.495268   0.501443
  0.488326   0.332719   0.662717
  0.517746   0.658988   0.345951
  0.010762   0.335216   0.003991
  0.987059   0.660648   0.989432
  0.238143   0.811631   0.176952
  0.768196   0.171866   0.501985
  0.482751   0.995678   0.665075
  0.763199   0.838648   0.181375
  0.773962   0.840810   0.498649
  0.233142   0.500399   0.498002
  0.254186   0.490873   0.826855
  0.984554   0.337346   0.317101
  0.011552   0.337271   0.679507
  0.974387   0.656953   0.338007
  0.223336   0.824804   0.498426
  0.235459   0.828713   0.826745
  0.483919   0.332583  -0.000456
  0.740481   0.499124   0.176903
  0.768187   0.840028   0.814334
  0.003904   0.671756   0.674002
  0.745769   0.168794   0.828976
  0.019297  -0.001036   0.995296
  0.232812   0.181709   0.501594
  0.255689   0.503688   0.174632
  0.488156   0.992179   0.991562
  0.740632   0.162518   0.170184
  0.473642   0.995319   0.342368
  0.741157   0.486951   0.822101
  0.493606   0.674231   0.660928
