generated by pypospack
   4.98831
  1.376012   0.000924  -0.000448
  0.001424   2.064563   0.005581
 -0.000622   0.005493   2.060661
 Ta Zr Nb Hf
 9 8 9 10
Direct
  0.246065   0.182676   0.180609
  0.253140   0.165453   0.505849
  0.016500   0.327247   0.340706
  0.006523   0.337531   0.665710
  0.239771   0.481785   0.830504
  0.252212   0.860898   0.514840
  0.483303   0.325295   0.332644
  0.760319   0.491636   0.816863
  0.752102   0.851708   0.518979
  0.984985   0.011903   0.006284
  0.999860   0.998873   0.330136
  0.987249   0.324316   0.998905
  0.013451   0.663440   0.660230
  0.501120   0.997653   0.326454
  0.754407   0.505871   0.174598
  0.500763   0.657739   0.981338
  0.754033   0.835590   0.827377
  0.003946   0.000588   0.669264
  0.261374   0.482773   0.496399
  0.995494   0.655927   0.979084
  0.245935   0.843098   0.833994
  0.751960   0.182797   0.193748
  0.498368   0.997722   0.669345
  0.742483   0.167139   0.813207
  0.493622   0.338362   0.669024
  0.767469   0.811666   0.154585
  0.255390   0.168339   0.821894
  0.243734   0.499926   0.166009
  0.230413   0.815290   0.143612
  0.009986   0.677391   0.353721
  0.509425   0.008591   0.010446
  0.746694   0.168022   0.506127
  0.508715   0.325630   0.002043
  0.742696   0.487066   0.499127
  0.496019   0.684100   0.343991
  0.490473   0.665961   0.662350
