generated by pypospack
   4.98831
  1.372755   0.000168  -0.000288
  0.000355   2.034582   0.000211
 -0.000403   0.000171   2.046844
 Ta Hf Nb Zr
 14 7 8 7
Direct
  0.236998   0.841609   0.500127
  0.763058   0.842955   0.497782
  0.239310   0.499422   0.174475
  0.992609   0.669113   0.005973
  0.227565   0.834224   0.171957
  0.760527   0.495208   0.494987
  0.770041   0.836317   0.174443
  0.998562   0.991373   0.005556
  0.765291   0.513920   0.831456
  0.000223   0.668314   0.335175
  0.259397   0.158368   0.497474
  0.239317   0.143565   0.821750
  0.499084   0.990793   0.660742
  0.482048   0.347831   0.353327
  0.492899   0.339937   0.669651
  0.503279   0.988831   0.002995
  0.744021   0.164683   0.493920
  0.011020   0.335491   0.667001
  0.763257   0.150328   0.828344
  0.506947   0.669259   0.660121
  0.483734   0.338817   0.982367
  0.758153   0.834352   0.826952
  0.238493   0.504653   0.496495
  0.498006   0.987262   0.333833
  0.003494   0.992478   0.333025
  0.003552   0.999642   0.658659
  0.991164   0.664568   0.660875
  0.019415   0.342549   0.348945
  0.228312   0.525152   0.832218
  0.751061   0.166889   0.174622
  0.239740   0.832613   0.827051
  0.755443   0.487828   0.174160
  0.497849   0.668221   0.336903
  0.019881   0.335261   0.985883
  0.501878   0.669896   0.002551
  0.254368   0.168290   0.178203
