generated by pypospack
   4.98831
  1.382334  -0.000310   0.000614
 -0.000367   2.036997  -0.001090
  0.000919  -0.001126   2.049928
 Ta Hf Zr Nb
 12 9 7 8
Direct
  0.762699   0.842711   0.502707
  0.239391   0.495322   0.175027
  0.998895   0.665547   0.007840
  0.224264   0.834590   0.176216
  0.758836   0.492375   0.492580
  0.773774   0.833606   0.169805
  0.014707   0.993884   0.009630
  0.765197   0.514725   0.833779
  0.993855   0.666389   0.333045
  0.258191   0.159522   0.494553
  0.250192   0.146729   0.826969
  0.497840   0.005878   0.662138
  0.493741   0.336701   0.671267
  0.489549   0.987816   0.011402
  0.743302   0.165505   0.491435
  0.762977   0.834535   0.826750
  0.254028   0.170586   0.180639
  0.007824   0.332175   0.666722
  0.236556   0.841166   0.501906
  0.755644   0.151990   0.837955
  0.508776   0.659597   0.659317
  0.751671   0.166080   0.170378
  0.239913   0.834332   0.823437
  0.753815   0.488957   0.171365
  0.501656   0.669847   0.335158
  0.021497   0.337434   0.985456
  0.496320   0.666105   0.002542
  0.481087   0.342539   0.981629
  0.239149   0.502543   0.493669
  0.504112   0.984435   0.328895
  0.995907   0.992598   0.330638
  0.006523   0.016836   0.660952
  0.989360   0.656407   0.658701
  0.015307   0.341784   0.347072
  0.483833   0.345482   0.349375
  0.229607   0.523282   0.829044
