generated by pypospack                  
   4.98831000000000     
     1.3866306589583450    0.0026778490265831    0.0052913863624893
     0.0040008289308029    2.0509569621385304   -0.0002227979581322
     0.0078447611477855   -0.0002813783401460    2.0420797085183553
   Ta   Hf   Nb   Zr
    10    11     9     6
Direct
  0.2469878467386583  0.1694814261221224  0.5104193164557435
  0.0361257792025125  0.3354936116221793  0.3480967037351863
  0.0136765526603040  0.3330681659135701  0.6702923716782815
  0.2668571443470143  0.5026181862938754  0.8345390890995533
  0.2854767727967669  0.8311438787151423  0.5106730941818044
  0.2579111672250636  0.8177404992378946  0.1539861044051569
  0.4852263331349835  0.3323907753586170  0.6672745082224476
  0.4879944314047509  0.3170837037374337  0.9927930387735661
  0.2566173149428946  0.5003539142538901  0.5096917870938340
  0.4834604737341981  0.6681919731659948  0.3315879492176216
  0.2633685370080969  0.8271385313682919  0.8374285907156850
  0.7173431591347930  0.8372065205177424  0.5020029843634549
 -0.0004483415486322 -0.0019006572300022  0.6679584979690201
  0.7335455347917897  0.4994979219910485  0.8349394815333745
  0.2505879606741351  0.5076157475493279  0.1522172259442232
  0.0182126755755401  0.6773282146211269  0.3406447741375324
  0.5063069450981051  0.0055579022414943  0.0015653053941413
  0.7526721839002632  0.1727913994906429  0.5001059403532574
  0.4649661055922342  0.3318458179071307  0.3320209663491965
  0.0180785061351500  0.9905154026812427  0.3366118793807784
  0.7715199005875721  0.1841189837890952  0.1814154536691785
  0.5113605653044538  0.6747873306634646  0.0041556481710636
  0.7392616365877620  0.8209082447033514  0.8360157583215198
  0.2250866344871742  0.1732686631711276  0.1633733533068096
  0.9908808552422818  0.6750294501357242  0.0029897862040652
  0.4972917614698349  0.0102057555433867  0.6748836472144000
  0.7364663287925941  0.1772123274742727  0.8176475732289542
  0.7444922636419034  0.8218562299660409  0.1689440512589821
  0.2612606182530962  0.1636119788677441  0.8219940045612441
  0.4946198031124895  0.6588079587420838  0.6671060182404754
  0.7470497591123365  0.4929396955704570  0.4971048376389596
  0.9893075250916734  0.9955630606499617  0.9991898091315052
  0.0107068923919889  0.3260497752046676  0.9772607949217536
  0.0029184688717837  0.6693617587857299  0.6650411028671768
  0.4824694846516895  0.0016019150949381  0.3197095603316782
  0.7503254198527322  0.4995269360791843  0.1683149919283558
 
  0.00000000E+00  0.00000000E+00  0.00000000E+00
  0.00000000E+00  0.00000000E+00  0.00000000E+00
  0.00000000E+00  0.00000000E+00  0.00000000E+00
  0.00000000E+00  0.00000000E+00  0.00000000E+00
  0.00000000E+00  0.00000000E+00  0.00000000E+00
  0.00000000E+00  0.00000000E+00  0.00000000E+00
  0.00000000E+00  0.00000000E+00  0.00000000E+00
  0.00000000E+00  0.00000000E+00  0.00000000E+00
  0.00000000E+00  0.00000000E+00  0.00000000E+00
  0.00000000E+00  0.00000000E+00  0.00000000E+00
  0.00000000E+00  0.00000000E+00  0.00000000E+00
  0.00000000E+00  0.00000000E+00  0.00000000E+00
  0.00000000E+00  0.00000000E+00  0.00000000E+00
  0.00000000E+00  0.00000000E+00  0.00000000E+00
  0.00000000E+00  0.00000000E+00  0.00000000E+00
  0.00000000E+00  0.00000000E+00  0.00000000E+00
  0.00000000E+00  0.00000000E+00  0.00000000E+00
  0.00000000E+00  0.00000000E+00  0.00000000E+00
  0.00000000E+00  0.00000000E+00  0.00000000E+00
  0.00000000E+00  0.00000000E+00  0.00000000E+00
  0.00000000E+00  0.00000000E+00  0.00000000E+00
  0.00000000E+00  0.00000000E+00  0.00000000E+00
  0.00000000E+00  0.00000000E+00  0.00000000E+00
  0.00000000E+00  0.00000000E+00  0.00000000E+00
  0.00000000E+00  0.00000000E+00  0.00000000E+00
  0.00000000E+00  0.00000000E+00  0.00000000E+00
  0.00000000E+00  0.00000000E+00  0.00000000E+00
  0.00000000E+00  0.00000000E+00  0.00000000E+00
  0.00000000E+00  0.00000000E+00  0.00000000E+00
  0.00000000E+00  0.00000000E+00  0.00000000E+00
  0.00000000E+00  0.00000000E+00  0.00000000E+00
  0.00000000E+00  0.00000000E+00  0.00000000E+00
  0.00000000E+00  0.00000000E+00  0.00000000E+00
  0.00000000E+00  0.00000000E+00  0.00000000E+00
  0.00000000E+00  0.00000000E+00  0.00000000E+00
  0.00000000E+00  0.00000000E+00  0.00000000E+00
