generated by pypospack
   4.98831
  1.404959   0.001426   0.004080
  0.002122   2.059352  -0.000033
  0.006067  -0.000244   2.046436
 Hf Nb Ta Zr
 12 10 5 9
Direct
  0.483765   0.013106   0.998534
  0.266766   0.503942   0.166415
  0.495923   0.663374   0.649126
  0.256108   0.506894   0.844161
  0.235358   0.172014   0.488359
  0.007176   0.329795   0.007573
  0.965207   0.665854   0.022497
  0.273161   0.815515   0.164016
  0.468219   0.998350   0.663583
  0.763840   0.838322   0.503426
  0.251501   0.814567   0.844111
  0.242839   0.830090   0.489314
  0.261409   0.178699   0.182084
  0.014826   0.668583   0.654867
  0.539185   0.665685   0.006473
  0.721730   0.830499   0.181041
  0.505247   0.344557   0.342732
  0.987517   0.343171   0.319624
  0.008708   0.332000   0.677383
  0.484788   0.319248   0.000218
  0.236849   0.174765   0.826515
  0.491937   0.992659   0.334743
  0.728759   0.494522   0.178379
  0.040452   0.998020   0.668003
  0.513461   0.665338   0.346154
  0.772305   0.503431   0.494510
  0.982674   0.669570   0.326170
  0.002998   0.990325   0.314920
  0.008329   0.004354   0.005825
  0.761797   0.165216   0.500287
  0.760089   0.164179   0.824687
  0.728520   0.175761   0.176251
  0.495989   0.336195   0.658745
  0.763651   0.837427   0.818904
  0.225068   0.496989   0.491737
  0.753847   0.496991   0.828632
