generated by pypospack                  
   4.98831000000000     
     1.3940717346544826   -0.0034359244822860   -0.0021967936364696
    -0.0049830216655224    2.0581492458310864    0.0051151507507843
    -0.0031159095100714    0.0050137000507808    2.0477578468823259
   Nb   Hf   Zr   Ta
     5    12     7    12
Direct
  0.2578700097214730  0.1642003698431790  0.1591468769958950
  0.9765493616232727  0.6786786798911941  0.0023221097277591
  0.7392945869379469  0.1836282814713167  0.8335613758459359
  0.7451369536355822  0.8351300583138977  0.1662937041678789
  0.2607903055748300  0.1693068942897857  0.8310019631564945
  0.7623257624061331  0.4914372553390205  0.1720904034706953
  0.2516953802956808  0.8283636924946268  0.8446066449594277
  0.7243106143936313  0.8277050493043467  0.5079041112858763
  0.7472685271122343  0.4916394514522776  0.8332680797382823
  0.2286136581593852  0.5076165450173674  0.1576499108992898
  0.0092492969070694  0.6828067197027433  0.3369644592174829
  0.7658855056817915  0.1792273130614514  0.4922032323734462
  0.4626382656467058  0.3342090743690473  0.3336822932759683
  0.0139546254075260  0.9951099852444139  0.3309344324459292
  0.7460397317444725  0.1792686747261343  0.1745870837126487
  0.5158474707108216  0.6667913159565715  0.0064187538878714
  0.5058504558851512  0.0157946718445318  0.6793546342952225
  0.7430537908492196  0.4960670222341831  0.4945784185659182
  0.9889762992778779  0.0003663826627322  0.0007611835129129
  0.0171403511229493  0.3185433239364683  0.9882622747297589
  0.0094519337008504  0.6594750986544938  0.6630795419748314
  0.4848120029072163  0.0001458803297182  0.3232493817607532
  0.9924445271557697  0.0069875062597470  0.6730664671347636
  0.2869706234079525  0.8243421860906028  0.5071894393696464
  0.2315415557840863  0.1748331749477017  0.5089056637241537
  0.0371670105237367  0.3317716270711623  0.3402692161206375
  0.0169784208596913  0.3374753851785773  0.6688528368465649
  0.2594902214498260  0.4952591337752769  0.8294198268164983
  0.2520848399370023  0.8265276730900969  0.1507529183858375
  0.4865758762649868  0.3284127421387203  0.6673338684715765
  0.4851715555714257  0.3250893888318814  0.9934929895485832
  0.2618177752582865  0.5005599137255481  0.5070961329809269
  0.4939197029293659  0.6670040777068493  0.3139616119404646
  0.5053837217035057 -0.0001419801027187  0.9987422693692309
  0.4929767555358212  0.6527288415508615  0.6803493444218970
  0.7407135239167094  0.8236455895961807  0.8286435448689470
 
  0.00000000E+00  0.00000000E+00  0.00000000E+00
  0.00000000E+00  0.00000000E+00  0.00000000E+00
  0.00000000E+00  0.00000000E+00  0.00000000E+00
  0.00000000E+00  0.00000000E+00  0.00000000E+00
  0.00000000E+00  0.00000000E+00  0.00000000E+00
  0.00000000E+00  0.00000000E+00  0.00000000E+00
  0.00000000E+00  0.00000000E+00  0.00000000E+00
  0.00000000E+00  0.00000000E+00  0.00000000E+00
  0.00000000E+00  0.00000000E+00  0.00000000E+00
  0.00000000E+00  0.00000000E+00  0.00000000E+00
  0.00000000E+00  0.00000000E+00  0.00000000E+00
  0.00000000E+00  0.00000000E+00  0.00000000E+00
  0.00000000E+00  0.00000000E+00  0.00000000E+00
  0.00000000E+00  0.00000000E+00  0.00000000E+00
  0.00000000E+00  0.00000000E+00  0.00000000E+00
  0.00000000E+00  0.00000000E+00  0.00000000E+00
  0.00000000E+00  0.00000000E+00  0.00000000E+00
  0.00000000E+00  0.00000000E+00  0.00000000E+00
  0.00000000E+00  0.00000000E+00  0.00000000E+00
  0.00000000E+00  0.00000000E+00  0.00000000E+00
  0.00000000E+00  0.00000000E+00  0.00000000E+00
  0.00000000E+00  0.00000000E+00  0.00000000E+00
  0.00000000E+00  0.00000000E+00  0.00000000E+00
  0.00000000E+00  0.00000000E+00  0.00000000E+00
  0.00000000E+00  0.00000000E+00  0.00000000E+00
  0.00000000E+00  0.00000000E+00  0.00000000E+00
  0.00000000E+00  0.00000000E+00  0.00000000E+00
  0.00000000E+00  0.00000000E+00  0.00000000E+00
  0.00000000E+00  0.00000000E+00  0.00000000E+00
  0.00000000E+00  0.00000000E+00  0.00000000E+00
  0.00000000E+00  0.00000000E+00  0.00000000E+00
  0.00000000E+00  0.00000000E+00  0.00000000E+00
  0.00000000E+00  0.00000000E+00  0.00000000E+00
  0.00000000E+00  0.00000000E+00  0.00000000E+00
  0.00000000E+00  0.00000000E+00  0.00000000E+00
  0.00000000E+00  0.00000000E+00  0.00000000E+00
