generated by pypospack                  
   4.98831000000000     
     1.4005845678613487    0.0008347716900200   -0.0021067886415914
     0.0011767411828470    2.0736246813626349    0.0024946788461391
    -0.0030014483987972    0.0024365394885188    2.0404802023471866
   Hf   Zr   Nb   Ta
     9    11    10     6
Direct
  0.9900242560168079  0.3475168341681519  0.0107854588964014
  0.9952185516369192  0.6608484140434309  0.9945093818422711
  0.2549234021192822  0.8273520147254402  0.1645976513829350
  0.4821885056025959  0.9974158044287922  0.6652507616939837
  0.7441121067739583  0.8245961909217026  0.1811336810102711
  0.7713301923240045  0.8352193126657917  0.4991814860578193
  0.2334510297248672  0.4964183547987919  0.4884856848654447
  0.0183204484585024  0.6695902321102879  0.6817257492216763
  0.7563355005224560  0.4978100420158419  0.4935157879589900
  0.2612566011961260  0.1708535542264740  0.1633332226094312
  0.9844549830572125  0.9935606247913202  0.9905803369392765
  0.7657771039553930  0.1690988937070524  0.5020517496618068
  0.2558043859545322  0.1736172233068566  0.8405313995295589
  0.7566754994908974  0.1752983650313001  0.8204899304595783
  0.2616223893729510  0.5060809534136494  0.1757512509500179
  0.5262016253447137  0.9837633563064337  0.9856847292054343
  0.7388637836839325  0.1702489738465788  0.1756714643090304
  0.4738941563920449  0.9977484303635108  0.3510200554273583
  0.7384956316479259  0.4873029711831861  0.8184974032612370
  0.4859547376925292  0.6714113967907070  0.6652864652756292
  0.2311606154418848  0.1731665649424017  0.5019274180466293
  0.4972973761073447  0.3316664989758505  0.3462335132599849
  0.2677458721176758  0.4912844012212546  0.8356512137264643
  0.9929507659839282  0.3324686403612036  0.3161703027952608
  0.0299442128451124  0.3367992039994085  0.6711500508391829
  0.9960704638837781  0.6676889514302216  0.3241929481419932
  0.2190295796069250  0.8298392596431985  0.4929474052322388
  0.2541609637739500  0.8321643895386955  0.8485172777157085
  0.5110575219457624  0.3520565212310013  0.0014117220018044
  0.7552445986814865  0.8306422477197151  0.8162741675004450
  0.7327579799898283  0.5091460483711041  0.1787930207202572
  0.5032946234178745  0.6644818628866135  0.9880457895815199
  0.0215618002508147  0.0046079318236839  0.3380924072182267
  0.0253337159973605  0.9883727677192780  0.6720033942862023
  0.4751081522864017  0.3250277547254806  0.6495624443186695
  0.4923818667022304  0.6748370125655923  0.3509472740572663
 
  0.00000000E+00  0.00000000E+00  0.00000000E+00
  0.00000000E+00  0.00000000E+00  0.00000000E+00
  0.00000000E+00  0.00000000E+00  0.00000000E+00
  0.00000000E+00  0.00000000E+00  0.00000000E+00
  0.00000000E+00  0.00000000E+00  0.00000000E+00
  0.00000000E+00  0.00000000E+00  0.00000000E+00
  0.00000000E+00  0.00000000E+00  0.00000000E+00
  0.00000000E+00  0.00000000E+00  0.00000000E+00
  0.00000000E+00  0.00000000E+00  0.00000000E+00
  0.00000000E+00  0.00000000E+00  0.00000000E+00
  0.00000000E+00  0.00000000E+00  0.00000000E+00
  0.00000000E+00  0.00000000E+00  0.00000000E+00
  0.00000000E+00  0.00000000E+00  0.00000000E+00
  0.00000000E+00  0.00000000E+00  0.00000000E+00
  0.00000000E+00  0.00000000E+00  0.00000000E+00
  0.00000000E+00  0.00000000E+00  0.00000000E+00
  0.00000000E+00  0.00000000E+00  0.00000000E+00
  0.00000000E+00  0.00000000E+00  0.00000000E+00
  0.00000000E+00  0.00000000E+00  0.00000000E+00
  0.00000000E+00  0.00000000E+00  0.00000000E+00
  0.00000000E+00  0.00000000E+00  0.00000000E+00
  0.00000000E+00  0.00000000E+00  0.00000000E+00
  0.00000000E+00  0.00000000E+00  0.00000000E+00
  0.00000000E+00  0.00000000E+00  0.00000000E+00
  0.00000000E+00  0.00000000E+00  0.00000000E+00
  0.00000000E+00  0.00000000E+00  0.00000000E+00
  0.00000000E+00  0.00000000E+00  0.00000000E+00
  0.00000000E+00  0.00000000E+00  0.00000000E+00
  0.00000000E+00  0.00000000E+00  0.00000000E+00
  0.00000000E+00  0.00000000E+00  0.00000000E+00
  0.00000000E+00  0.00000000E+00  0.00000000E+00
  0.00000000E+00  0.00000000E+00  0.00000000E+00
  0.00000000E+00  0.00000000E+00  0.00000000E+00
  0.00000000E+00  0.00000000E+00  0.00000000E+00
  0.00000000E+00  0.00000000E+00  0.00000000E+00
  0.00000000E+00  0.00000000E+00  0.00000000E+00
