generated by pypospack
   4.98831
  1.393721   0.000903  -0.003210
  0.001458   2.049201   0.007835
 -0.004695   0.007850   2.057342
 Zr Nb Ta Hf
 8 8 9 11
Direct
  0.487358   0.323616   0.330373
  0.744189   0.495685   0.497082
  0.006000   0.992924   0.998531
  0.502263   0.003417   0.332443
  0.260299   0.836168   0.506083
  0.773866   0.170454   0.160931
  0.004568   0.685620   0.001253
  0.004274   0.327955   0.666253
  0.761161   0.175660   0.490183
  0.226039   0.167605   0.170772
  0.757493   0.184560   0.848611
  0.244887   0.170399   0.833031
  0.026480   0.329705   0.987766
  0.744902   0.827574   0.503524
  0.251704   0.836394   0.183331
  0.489697   0.330888   0.672406
  0.748378   0.839339   0.183521
  0.242796   0.162983   0.498439
  0.015763   0.323431   0.345982
  0.247062   0.505254   0.825017
  0.252640   0.496849   0.498821
  0.502922   0.672833   0.326854
  0.486136   0.637837   0.654965
  0.011588   0.656882   0.656495
  0.997952   0.996346   0.339979
  0.476937   0.329402   0.996896
  0.766605   0.495477   0.164543
  0.269788   0.821753   0.813370
  0.753219   0.499724   0.835155
  0.226189   0.497282   0.174057
  0.993876   0.678890   0.339946
  0.494649   0.674607   0.018681
  0.520063   0.029192   0.669035
  0.984261   0.008679   0.666920
  0.729772   0.813995   0.808343
  0.494227   0.000638   0.000408
