generated by pypospack                  
   4.98831000000000     
     1.4035919440903799    0.0017082909549844    0.0002939272375728
     0.0026101592550195    2.0395820530913387   -0.0020177076974471
     0.0003060456972708   -0.0020710751729840    2.0568845770071795
   Hf   Nb   Ta   Zr
     9     6    11    10
Direct
  0.2785474075928446  0.1719833450850083  0.8413499219570463
  0.9923965680951824  0.0016560598048779  0.9978799912788073
  0.9846204112912709  0.3327775394868515  0.6732956839426617
  0.9967588393612374  0.0121277341746245  0.6847243681297230
  0.0080676971040095  0.6718906723169938  0.3167762316841003
  0.5142076435652770  0.9956193510418248  0.3318603247418596
  0.5215577091167869  0.3339613505784074  0.6560003789285842
  0.9676894640504267  0.3269971316793235  0.9941388838658568
  0.7323961051637852  0.8277182361847111  0.8297203297069882
  0.7396426764285270  0.1646777556256433  0.1689553505360400
  0.7181931457684352  0.1567745275907011  0.8346303258009724
  0.2652978625752472  0.8314829225491543  0.8303521412113952
  0.5385109273193985  0.3321232091444683  0.0008774327423200
  0.7409115819357633  0.5137986890585824  0.8331359627287518
  0.5020607425713631  0.9934301920205809  0.0038251391371981
  0.5252289376401527  0.3314144472131441  0.3405353329160759
  0.7363199323673317  0.8356763684634381  0.1526782291772771
  0.9791423608729032  0.9945892673174672  0.3152726951311157
  0.2573442349435909  0.8484909210139012  0.1596394880936382
  0.5021649160498702  0.0065719639844788  0.6613181177261579
  0.7284050363029073  0.5001510352079965  0.1661777090865133
  0.7575849997942014  0.1551887865902168  0.4936015488618529
  0.5014598397015168  0.6701301825721427  0.0039282212445683
  0.4824467798874990  0.6579921685347188  0.6734430978534818
  0.2511173409672396  0.5035731114788443  0.5087305525597922
  0.0187513394524287  0.6589063469428116  0.6827435957629597
  0.2718686995486815  0.4806695679836659  0.1600031127598290
  0.9807982651169312  0.3378050607953766  0.3320276870533361
  0.4873498493329753  0.6725450318914000  0.3253548674715206
  0.2437267308558365  0.1708705249430496  0.4930977003115583
 -0.0009501317323144  0.6667801150087548  0.0046193949651073
  0.7564429206527089  0.5230930188649878  0.5046015090732077
  0.7600934577912841  0.8319607246320153  0.5102866212398335
  0.2629902547721725  0.4906449649453976  0.8408922895173675
  0.2567560576377472  0.1651025742625845  0.1653186448076533
  0.2400803961047745  0.8308291010118513  0.5082081179948389
 
  0.00000000E+00  0.00000000E+00  0.00000000E+00
  0.00000000E+00  0.00000000E+00  0.00000000E+00
  0.00000000E+00  0.00000000E+00  0.00000000E+00
  0.00000000E+00  0.00000000E+00  0.00000000E+00
  0.00000000E+00  0.00000000E+00  0.00000000E+00
  0.00000000E+00  0.00000000E+00  0.00000000E+00
  0.00000000E+00  0.00000000E+00  0.00000000E+00
  0.00000000E+00  0.00000000E+00  0.00000000E+00
  0.00000000E+00  0.00000000E+00  0.00000000E+00
  0.00000000E+00  0.00000000E+00  0.00000000E+00
  0.00000000E+00  0.00000000E+00  0.00000000E+00
  0.00000000E+00  0.00000000E+00  0.00000000E+00
  0.00000000E+00  0.00000000E+00  0.00000000E+00
  0.00000000E+00  0.00000000E+00  0.00000000E+00
  0.00000000E+00  0.00000000E+00  0.00000000E+00
  0.00000000E+00  0.00000000E+00  0.00000000E+00
  0.00000000E+00  0.00000000E+00  0.00000000E+00
  0.00000000E+00  0.00000000E+00  0.00000000E+00
  0.00000000E+00  0.00000000E+00  0.00000000E+00
  0.00000000E+00  0.00000000E+00  0.00000000E+00
  0.00000000E+00  0.00000000E+00  0.00000000E+00
  0.00000000E+00  0.00000000E+00  0.00000000E+00
  0.00000000E+00  0.00000000E+00  0.00000000E+00
  0.00000000E+00  0.00000000E+00  0.00000000E+00
  0.00000000E+00  0.00000000E+00  0.00000000E+00
  0.00000000E+00  0.00000000E+00  0.00000000E+00
  0.00000000E+00  0.00000000E+00  0.00000000E+00
  0.00000000E+00  0.00000000E+00  0.00000000E+00
  0.00000000E+00  0.00000000E+00  0.00000000E+00
  0.00000000E+00  0.00000000E+00  0.00000000E+00
  0.00000000E+00  0.00000000E+00  0.00000000E+00
  0.00000000E+00  0.00000000E+00  0.00000000E+00
  0.00000000E+00  0.00000000E+00  0.00000000E+00
  0.00000000E+00  0.00000000E+00  0.00000000E+00
  0.00000000E+00  0.00000000E+00  0.00000000E+00
  0.00000000E+00  0.00000000E+00  0.00000000E+00
