generated by pypospack
   4.98831
  1.393013   0.001075   0.007061
  0.001630   2.053301   0.000076
  0.010496  -0.000003   2.043696
 Ta Nb Hf Zr
 9 10 11 6
Direct
  0.258236   0.166073   0.509741
  0.034453   0.328219   0.346937
  0.015638   0.328807   0.667838
  0.255586   0.499802   0.835766
  0.285727   0.839475   0.519534
  0.257292   0.828820   0.833423
  0.219464   0.819756   0.146900
  0.481164   0.331823   0.666857
  0.489224   0.320035   0.992967
  0.510773   0.678953   0.007048
  0.743868   0.821857   0.826338
  0.250254   0.176140   0.164381
  0.245713   0.496380   0.514121
  0.991437   0.673039   0.988700
  0.497111   0.005120   0.679910
  0.736529   0.178593   0.817603
  0.774574   0.840264   0.173133
  0.263555   0.166202   0.823113
  0.490513   0.665616   0.675262
  0.721631   0.838901   0.503287
  0.004348  -0.000418   0.670729
  0.739293   0.494596   0.830279
  0.230963   0.502043   0.149125
  0.018777   0.676347   0.347822
  0.503417   0.002071   0.999393
  0.748681   0.171767   0.499496
  0.483486   0.668499   0.327847
  0.466895   0.342091   0.336879
  0.025645   0.997349   0.337514
  0.754424   0.177723   0.181495
  0.752246   0.492641   0.500450
  0.996230   0.002268   0.993490
  0.006961   0.316502   0.982857
  0.006158   0.669002   0.664695
  0.478748   0.993913   0.315622
  0.760971   0.489740   0.169443
