generated by pypospack
   4.98831
  1.369038   0.001489  -0.000497
  0.002258   2.042569  -0.005546
 -0.000715  -0.005490   2.047664
 Zr Hf Nb Ta
 6 9 9 12
Direct
  0.251889   0.142886   0.829102
  0.035171   0.336252   0.989488
  0.502269   0.985982   0.015308
  0.497661   0.334582   0.659407
  0.488697   0.669309   0.008300
  0.753275   0.832496   0.821931
  0.480583   0.339847   0.002703
  0.243017   0.165757   0.178526
  0.002049   0.330897   0.654764
  0.245546   0.835354   0.501714
  0.754179   0.158382   0.841004
  0.760924   0.508405   0.835827
  0.496894   0.663616   0.326223
  0.770766   0.491904   0.165572
  0.752802   0.831540   0.503465
  0.506750   0.001845   0.330130
  0.988701   0.006433   0.333011
  0.251729   0.161953   0.488662
  0.999071   0.012197   0.657849
  0.000737   0.664065   0.331986
  0.008993   0.660909   0.667277
  0.744854   0.161107   0.490418
  0.500219   0.007745   0.653730
  0.489953   0.658031   0.663605
  0.229083   0.495689   0.180563
  0.993722   0.332698   0.348803
  0.244085   0.508499   0.496154
  0.242809   0.519041   0.822051
  0.015287   0.677140   0.004216
  0.227679   0.840075   0.181728
  0.502088   0.337772   0.338641
  0.752331   0.508638   0.496633
  0.769854   0.835058   0.178549
  0.997319   0.983047   0.010248
  0.754681   0.169183   0.169926
  0.244333   0.831670   0.822489
