generated by pypospack                  
   4.98831000000000     
     1.3694899771270534    0.0014950087169092    0.0002535030355945
     0.0022665192802604    2.0423561260674941   -0.0050537659849434
     0.0004073188419122   -0.0049976317187591    2.0475978101350871
   Ta   Nb   Hf   Zr
    10    11     9     6
Direct
  0.2301063215556550  0.4952661630445290  0.1807816549206724
  0.2436454749640750  0.5069551853204914  0.4954207517014642
  0.2436085281294264  0.5226840138991899  0.8223310737718432
  0.0148955882637193  0.6772410515292063  0.0050054051876567
  0.2276750094752554  0.8398710867312226  0.1812069774531223
  0.7529496412259374  0.5065332028144993  0.4959545194193241
  0.7700693752180006  0.8347183895448992  0.1789449312362377
  0.9980394603711087  0.9829125175788089  0.0104055521509883
  0.7544243492103488  0.1683771938606540  0.1696644970601340
  0.2432354046357194  0.8318101625108689  0.8210385260318477
  0.5064583530370499  0.0006509176635865  0.3300290292280607
  0.9890750328715592  0.0051943939062040  0.3327587783119470
  0.2517961158606545  0.1629904100169341  0.4889001678282479
  0.9985224715745011  0.0140318874967189  0.6569400252882105
  0.0011725654685209  0.6647751066229834  0.3322335299570620
  0.0074937284503014  0.6596545873218800  0.6656861688846621
  0.7451249237731371  0.1626471693125601  0.4896801352006063
  0.5010543726642637  0.0081650125747762  0.6529593135380523
  0.4906871279002470  0.6576878537577125  0.6619462151086867
  0.9948196334671109  0.3324731999290514  0.3469257934329417
  0.5009801486795955  0.3362576067448672  0.3393514029956974
  0.4802600028753671  0.3401858433843787 -0.0003228346539357
  0.2431441145246042  0.1666119234982735  0.1784814693929210
  0.0033276952374149  0.3310553550206239  0.6574190454892149
  0.2450528536917185  0.8357749710233461  0.5040786438540582
  0.7537433766376818  0.1585677849285697  0.8418119983165001
  0.7602243939806060  0.5089200029661078  0.8361344154769623
  0.4964456286236588  0.6652660082270442  0.3272421488606424
  0.7690910964431753  0.4915594529827800  0.1666769090687802
  0.7530606446499839  0.8318455065600558  0.5035431619580032
  0.2530892648727317  0.1399580099620890  0.8294139769969772
  0.0346987183496789  0.3367988743785483  0.9883148420246849
  0.5024811994537991  0.9856465453477423  0.0160707764405101
  0.4968907160525489  0.3349503823066239  0.6622382039720829
  0.4893010480305919  0.6694304604613310  0.0091822088386052
  0.7533546197802401  0.8325347667708205  0.8215545852565540
 
  0.00000000E+00  0.00000000E+00  0.00000000E+00
  0.00000000E+00  0.00000000E+00  0.00000000E+00
  0.00000000E+00  0.00000000E+00  0.00000000E+00
  0.00000000E+00  0.00000000E+00  0.00000000E+00
  0.00000000E+00  0.00000000E+00  0.00000000E+00
  0.00000000E+00  0.00000000E+00  0.00000000E+00
  0.00000000E+00  0.00000000E+00  0.00000000E+00
  0.00000000E+00  0.00000000E+00  0.00000000E+00
  0.00000000E+00  0.00000000E+00  0.00000000E+00
  0.00000000E+00  0.00000000E+00  0.00000000E+00
  0.00000000E+00  0.00000000E+00  0.00000000E+00
  0.00000000E+00  0.00000000E+00  0.00000000E+00
  0.00000000E+00  0.00000000E+00  0.00000000E+00
  0.00000000E+00  0.00000000E+00  0.00000000E+00
  0.00000000E+00  0.00000000E+00  0.00000000E+00
  0.00000000E+00  0.00000000E+00  0.00000000E+00
  0.00000000E+00  0.00000000E+00  0.00000000E+00
  0.00000000E+00  0.00000000E+00  0.00000000E+00
  0.00000000E+00  0.00000000E+00  0.00000000E+00
  0.00000000E+00  0.00000000E+00  0.00000000E+00
  0.00000000E+00  0.00000000E+00  0.00000000E+00
  0.00000000E+00  0.00000000E+00  0.00000000E+00
  0.00000000E+00  0.00000000E+00  0.00000000E+00
  0.00000000E+00  0.00000000E+00  0.00000000E+00
  0.00000000E+00  0.00000000E+00  0.00000000E+00
  0.00000000E+00  0.00000000E+00  0.00000000E+00
  0.00000000E+00  0.00000000E+00  0.00000000E+00
  0.00000000E+00  0.00000000E+00  0.00000000E+00
  0.00000000E+00  0.00000000E+00  0.00000000E+00
  0.00000000E+00  0.00000000E+00  0.00000000E+00
  0.00000000E+00  0.00000000E+00  0.00000000E+00
  0.00000000E+00  0.00000000E+00  0.00000000E+00
  0.00000000E+00  0.00000000E+00  0.00000000E+00
  0.00000000E+00  0.00000000E+00  0.00000000E+00
  0.00000000E+00  0.00000000E+00  0.00000000E+00
  0.00000000E+00  0.00000000E+00  0.00000000E+00
