generated by pypospack                  
   4.98831000000000     
     1.3778301217738809   -0.0043967711028739    0.0003293337851799
    -0.0063000286730076    2.0382116531986503    0.0009808225319992
     0.0004982810457569    0.0009610271444033    2.0443071690361059
   Zr   Hf   Ta   Nb
     9     6    10    11
Direct
  0.7764379495768824  0.8277740153101193  0.8345397263633031
  0.7617578068800768  0.8327027006239668  0.1722723142251473
  0.4935032999881446  0.3396322737358394 -0.0014626063372031
  0.2173209462364957  0.8382145534783721  0.8327266104393847
  0.7424685574352894  0.5119163445991372  0.1692872915218209
  0.0029141322399387  0.3281698057789592  0.9959128101434916
  0.4837363093186605  0.6661252562761134  0.9924350513156991
  0.2570446572621884  0.1657594043747004  0.1807690141155282
  0.4955567600555270  0.9919274798029505  0.0027509576606634
  0.0163112353291151  0.6638530680879643  0.3455719722833674
  0.0063588945683535  0.3302923038709581  0.6591872063554288
  0.7225687490114679  0.1696106822598656  0.8242843278218869
  0.4944628355837853  0.6706208520325252  0.6672546269040848
  0.9982882989178974  0.0147541902301363  0.6506692289789048
  0.9935422516640205  0.3362682063210400  0.3456823067410764
  0.2592896202688043  0.8420355321347927  0.4941794656196855
  0.7411474399344758  0.8358462178366757  0.4918947038758740
  0.2618254210282824  0.5005061462519331  0.1751875167450762
  0.7366523864874097  0.5006303038461202  0.5105881439778942
  0.0042800086752161  0.0179006570782694  0.0067672641137133
  0.7586344447666024  0.4987881308176227  0.8203655650836520
  0.2723044312788747  0.1633551829712780  0.4917822891638140
  0.2688267109951882  0.1590216464096222  0.8231037005763100
  0.4958561517266737  0.9918022541572297  0.6565584476180130
  0.5116562310549428  0.3342496944382771  0.3388885327496382
  0.2415556922112811  0.8360020338084960  0.1730885430347474
  0.0175048534870209  0.6518821003467898  0.0052852052848456
  0.4893131702588848  0.6667219448756364  0.3434224632770563
  0.2659743505430761  0.4964592321529219  0.5011770446062519
  0.5057212039218593 -0.0012470614356518  0.3354786308517226
  0.0014273713176401 -0.0019108729054638  0.3392278083501526
  0.0011277590683304  0.6560973978110559  0.6555177873208694
  0.2339040259317168  0.5033096719062452  0.8301569705443647
  0.4901475745961319  0.3409207015645552  0.6634021360117073
  0.7509093521287111  0.1564172279117277  0.1741018672672338
  0.7296631162510150  0.1635967212392388  0.4979490753948040
 
  0.00000000E+00  0.00000000E+00  0.00000000E+00
  0.00000000E+00  0.00000000E+00  0.00000000E+00
  0.00000000E+00  0.00000000E+00  0.00000000E+00
  0.00000000E+00  0.00000000E+00  0.00000000E+00
  0.00000000E+00  0.00000000E+00  0.00000000E+00
  0.00000000E+00  0.00000000E+00  0.00000000E+00
  0.00000000E+00  0.00000000E+00  0.00000000E+00
  0.00000000E+00  0.00000000E+00  0.00000000E+00
  0.00000000E+00  0.00000000E+00  0.00000000E+00
  0.00000000E+00  0.00000000E+00  0.00000000E+00
  0.00000000E+00  0.00000000E+00  0.00000000E+00
  0.00000000E+00  0.00000000E+00  0.00000000E+00
  0.00000000E+00  0.00000000E+00  0.00000000E+00
  0.00000000E+00  0.00000000E+00  0.00000000E+00
  0.00000000E+00  0.00000000E+00  0.00000000E+00
  0.00000000E+00  0.00000000E+00  0.00000000E+00
  0.00000000E+00  0.00000000E+00  0.00000000E+00
  0.00000000E+00  0.00000000E+00  0.00000000E+00
  0.00000000E+00  0.00000000E+00  0.00000000E+00
  0.00000000E+00  0.00000000E+00  0.00000000E+00
  0.00000000E+00  0.00000000E+00  0.00000000E+00
  0.00000000E+00  0.00000000E+00  0.00000000E+00
  0.00000000E+00  0.00000000E+00  0.00000000E+00
  0.00000000E+00  0.00000000E+00  0.00000000E+00
  0.00000000E+00  0.00000000E+00  0.00000000E+00
  0.00000000E+00  0.00000000E+00  0.00000000E+00
  0.00000000E+00  0.00000000E+00  0.00000000E+00
  0.00000000E+00  0.00000000E+00  0.00000000E+00
  0.00000000E+00  0.00000000E+00  0.00000000E+00
  0.00000000E+00  0.00000000E+00  0.00000000E+00
  0.00000000E+00  0.00000000E+00  0.00000000E+00
  0.00000000E+00  0.00000000E+00  0.00000000E+00
  0.00000000E+00  0.00000000E+00  0.00000000E+00
  0.00000000E+00  0.00000000E+00  0.00000000E+00
  0.00000000E+00  0.00000000E+00  0.00000000E+00
  0.00000000E+00  0.00000000E+00  0.00000000E+00
