generated by pypospack
   4.98831
  1.381712  -0.005866  -0.001618
 -0.008490   2.040228  -0.001698
 -0.002407  -0.001745   2.050553
 Zr Hf Ta Nb
 9 6 10 11
Direct
  0.780170   0.826821   0.835220
  0.767334   0.833691   0.172070
  0.485493   0.339646   0.000724
  0.221075   0.839447   0.839048
  0.743148   0.509857   0.171720
  0.002678   0.329334   0.998195
  0.491679   0.661611   0.988190
  0.256745   0.157622   0.179369
  0.512813  -0.003566  -0.001504
  0.011241   0.658557   0.355599
  0.008604   0.330873   0.656839
  0.723188   0.176726   0.819916
  0.494866   0.672952   0.667318
 -0.000092   0.010790   0.651630
  0.996942   0.336223   0.344015
  0.261956   0.842469   0.491410
  0.741563   0.836463   0.494802
  0.258919   0.508925   0.174771
  0.734229   0.498686   0.509860
  0.991333   0.026563   0.000563
  0.754976   0.494639   0.819060
  0.269263   0.163518   0.491829
  0.265155   0.157879   0.822930
  0.495679   0.991534   0.657044
  0.506311   0.333604   0.336249
  0.241094   0.830844   0.172884
  0.011220   0.643156   0.996823
  0.495946   0.664709   0.346437
  0.269677   0.494531   0.501287
  0.511421   0.002134   0.338807
  0.995775   0.001913   0.347049
  0.002162   0.657644   0.657202
  0.234856   0.503810   0.827299
  0.485060   0.339451   0.661464
  0.745334   0.162506   0.175845
  0.732181   0.164444   0.498040
