generated by pypospack
   4.98831
  1.401288   0.007921   0.004058
  0.011604   2.044500   0.002093
  0.006006   0.001907   2.055201
 Zr Hf Ta Nb
 8 11 5 12
Direct
  0.775363   0.843825   0.498238
  0.013804   0.005178   0.007388
  0.770166   0.165835   0.497864
  0.733525   0.170032   0.167388
  0.490588   0.331296   0.655222
  0.763275   0.843105   0.827406
  0.235171   0.506081   0.494407
  0.736387   0.488092   0.839676
  0.748392   0.166720   0.834046
  0.268199   0.508696   0.170956
  0.527266   0.667570   0.651900
  0.253779   0.511876   0.838004
  0.235852   0.166005   0.480643
  0.016016   0.331928   0.006364
  0.966114   0.661169   0.018279
  0.261104   0.823892   0.170583
  0.475170   0.001702   0.669329
  0.246702   0.816686   0.835711
  0.235854   0.831040   0.491250
  0.484501   0.003769   0.997488
  0.039677   0.014832   0.677884
  0.526125   0.667919   0.341129
  0.766056   0.495004   0.491271
  0.971055   0.659584   0.321706
  0.726585   0.493530   0.174621
  0.261435   0.163952   0.177728
  0.973032   0.652082   0.663219
  0.529891   0.676146   0.008689
  0.733713   0.837879   0.173152
  0.507884   0.341198   0.343725
  0.990467   0.344271   0.321338
  0.010595   0.331323   0.677685
  0.471767   0.317779   0.002255
  0.252602   0.171026   0.836152
  0.503871   0.992014   0.327784
  0.998017   0.996970   0.309520
