generated by pypospack
   4.98831
  1.383403   0.000374   0.000350
  0.000641   2.037144  -0.001166
  0.000526  -0.001202   2.050751
 Zr Ta Nb Hf
 6 12 8 10
Direct
  0.751903   0.166237   0.170839
  0.238566   0.833852   0.824413
  0.754523   0.488769   0.171517
  0.501366   0.669621   0.334884
  0.020509   0.336689   0.983959
  0.496763   0.666184   0.002823
  0.764802   0.842506   0.502003
  0.238787   0.494578   0.174654
  0.999111   0.664535   0.007800
  0.223675   0.835110   0.176350
  0.758198   0.493604   0.492575
  0.774939   0.834243   0.169549
  0.015299   0.995180   0.009065
  0.764973   0.516174   0.833886
  0.993621   0.665706   0.332980
  0.258719   0.158900   0.494032
  0.252318   0.145521   0.827089
  0.498428   0.999510   0.661011
  0.239287   0.503173   0.493320
  0.503870   0.984422   0.328529
  0.995802   0.993720   0.330757
  0.006894   0.018210   0.661224
  0.989987   0.655716   0.658986
  0.014598   0.341876   0.348017
  0.483484   0.345663   0.347537
  0.230330   0.523941   0.830212
  0.494530   0.338029   0.672670
  0.490074   0.987971   0.012150
  0.741692   0.165068   0.491767
  0.764719   0.834310   0.827929
  0.481817   0.342081   0.983131
  0.252595   0.170684   0.180684
  0.007265   0.332046   0.666238
  0.233744   0.841052   0.501006
  0.754154   0.150746   0.837272
  0.508654   0.664380   0.659138
