generated by pypospack
   4.98831
  1.387716   0.000820  -0.000025
  0.001150   2.061271  -0.005883
 -0.000099  -0.005891   2.074506
 Ta Hf Nb Zr
 9 12 6 9
Direct
  0.995621   0.339906  -0.003878
  0.011677  -0.006039   0.338567
  0.255158   0.490719   0.136542
  0.992493   0.331643   0.692043
  0.246881   0.494560   0.834519
  0.234743   0.854054   0.169749
  0.239621   0.829128   0.501114
  0.484446   0.981482   0.663506
  0.745531   0.484803   0.152956
  0.749492   0.174197   0.163314
  0.250230   0.160709   0.158271
  0.011066   0.998681   0.667056
  0.013437   0.346089   0.317219
  0.229398   0.500708   0.523074
  0.019856   0.660327   0.318012
  0.515188   0.971402   0.003896
  0.490906  -0.009796   0.334819
  0.506194   0.669259   0.000109
  0.486806   0.666954   0.319028
  0.761574   0.830202   0.497241
  0.506002   0.353891   0.675099
  0.767363   0.835062   0.192953
  0.006748   0.674571   0.681078
  0.249286   0.831853   0.825030
  0.504298   0.346747  -0.001913
  0.751243   0.493127   0.834929
  0.751203   0.830784   0.812021
  0.730078   0.169963   0.836400
  0.985150   0.986532   0.992346
  0.255406   0.174988   0.509137
  0.266758   0.173357   0.836103
  0.994199   0.667471  -0.000557
  0.744031   0.170152   0.507762
  0.487095   0.349332   0.329725
  0.765605   0.502593   0.508746
  0.495224   0.670594   0.673984
