generated by pypospack
   4.98831
  1.392207   0.001051  -0.004416
  0.001509   2.074138   0.000701
 -0.006694   0.000682   2.065762
 Ta Zr Nb Hf
 10 8 6 12
Direct
  0.997254   0.344714   0.001508
  0.017131   0.988069   0.328646
  0.273463   0.491127   0.141638
  0.982480   0.339243   0.690339
  0.241886   0.494931   0.836550
  0.250583   0.850408   0.170220
  0.237388   0.828362   0.501793
  0.484720   0.989021   0.662032
  0.729680   0.485421   0.155102
  0.772742   0.162219   0.500961
  0.738244   0.168135   0.842073
  0.988748   0.982100   0.997495
  0.214579   0.169787   0.505775
  0.256486   0.173677   0.841022
  0.997068   0.667016   0.002614
  0.491966   0.339015   0.343175
  0.775372   0.511280   0.503149
  0.496574   0.666119   0.672602
  0.756751   0.842522   0.189938
  0.006175   0.673720   0.683490
  0.254291   0.826609   0.823483
  0.503844   0.347568   0.992380
  0.756868   0.494376   0.838964
  0.748281   0.829879   0.811011
  0.752348   0.171484   0.163495
  0.250836   0.162831   0.155753
  0.014056   0.989925   0.678604
  0.012289   0.351293   0.310634
  0.217518   0.506372   0.518382
  0.017298   0.668181   0.313987
  0.512559   0.972921  -0.003691
  0.486252   0.998945   0.345349
  0.505630   0.670993  -0.001302
  0.488638   0.669623   0.322382
  0.763244   0.832489   0.499655
  0.506766   0.339632   0.660793
