generated by pypospack                  
   4.98831000000000     
     1.3923114311083638   -0.0006418039168675   -0.0002547941137712
    -0.0009471564125062    2.0520896679814760    0.0005456080891407
    -0.0002897384526715    0.0004698142261708    2.0482374661926981
   Zr   Hf   Nb   Ta
     8    10     8    10
Direct
  0.0002260027967972  0.0039785421804898  0.0014986978655685
  0.0009988845034849  0.9961764483006487  0.3315579395298794
 -0.0004912520012036  0.3130907051251297  0.9975577736317971
  0.0155835719418124  0.6737899802430850  0.6572410282661939
  0.5062950117911449  0.9994449036801050  0.3196720435951626
  0.7557614328643492  0.4998592469485416  0.1649421867879100
  0.4925510198808637  0.6717475129952798  0.9938050558974333
  0.7494196141254150  0.8300731055989298  0.8251253774432865
  0.0099730491890087  0.0048320672951893  0.6711291738245666
  0.7546138833011917  0.4897033091692565  0.8284714313027128
  0.2392409411446131  0.5034912508767545  0.1585133392003690
  0.0032342060393848  0.6823094907132181  0.3454683705712440
  0.5018747980683821  0.0045290176932308  0.0070248670378955
  0.7473677884846469  0.1713699858911894  0.5044342593118771
  0.7703859931603095  0.4843489456638743  0.5048146095723315
  0.4970059417027298  0.6710064424811250  0.3383363049790309
  0.4799943874117981  0.6556852250642987  0.6612112812443623
  0.4806697590426497  0.3375579121139960  0.3364864212854814
  0.2506473198254926  0.1743036590960400  0.1711970963595946
  0.2203236104089066  0.4853314425688418  0.5000579506021660
  0.0100374140563874  0.6725271285849354  0.9936536913093934
  0.7527169512271304  0.1824510797508574  0.1801523662463742
  0.4929619534371906  0.0070997426779939  0.6742182935327468
  0.7318115308604674  0.1795212000286941  0.8196282334461656
  0.7680370070689579  0.8154095357981576  0.1538696806085985
  0.2683415889105849  0.1708814357951849  0.8280505980794366
  0.2548987444413395  0.1620447104763642  0.5036527380108738
  0.0194405385671314  0.3214918290685399  0.3330768142646555
  0.0199975222717568  0.3223996420092715  0.6741529886989899
  0.2406981790696565  0.4922625309935829  0.8414632309230750
  0.2805499047488849  0.8580953492283211  0.5077068111811777
  0.7223056758482266  0.8448417333182943  0.5165251664266536
  0.2523974876040378  0.8363677087154412  0.8367832909718255
  0.2376298694090057  0.8194483198686884  0.1539993442887796
  0.4783600470404343  0.3400287683917061  0.6660928809168514
  0.4941226217570076  0.3225060915947356 -0.0015703372144491
 
  0.00000000E+00  0.00000000E+00  0.00000000E+00
  0.00000000E+00  0.00000000E+00  0.00000000E+00
  0.00000000E+00  0.00000000E+00  0.00000000E+00
  0.00000000E+00  0.00000000E+00  0.00000000E+00
  0.00000000E+00  0.00000000E+00  0.00000000E+00
  0.00000000E+00  0.00000000E+00  0.00000000E+00
  0.00000000E+00  0.00000000E+00  0.00000000E+00
  0.00000000E+00  0.00000000E+00  0.00000000E+00
  0.00000000E+00  0.00000000E+00  0.00000000E+00
  0.00000000E+00  0.00000000E+00  0.00000000E+00
  0.00000000E+00  0.00000000E+00  0.00000000E+00
  0.00000000E+00  0.00000000E+00  0.00000000E+00
  0.00000000E+00  0.00000000E+00  0.00000000E+00
  0.00000000E+00  0.00000000E+00  0.00000000E+00
  0.00000000E+00  0.00000000E+00  0.00000000E+00
  0.00000000E+00  0.00000000E+00  0.00000000E+00
  0.00000000E+00  0.00000000E+00  0.00000000E+00
  0.00000000E+00  0.00000000E+00  0.00000000E+00
  0.00000000E+00  0.00000000E+00  0.00000000E+00
  0.00000000E+00  0.00000000E+00  0.00000000E+00
  0.00000000E+00  0.00000000E+00  0.00000000E+00
  0.00000000E+00  0.00000000E+00  0.00000000E+00
  0.00000000E+00  0.00000000E+00  0.00000000E+00
  0.00000000E+00  0.00000000E+00  0.00000000E+00
  0.00000000E+00  0.00000000E+00  0.00000000E+00
  0.00000000E+00  0.00000000E+00  0.00000000E+00
  0.00000000E+00  0.00000000E+00  0.00000000E+00
  0.00000000E+00  0.00000000E+00  0.00000000E+00
  0.00000000E+00  0.00000000E+00  0.00000000E+00
  0.00000000E+00  0.00000000E+00  0.00000000E+00
  0.00000000E+00  0.00000000E+00  0.00000000E+00
  0.00000000E+00  0.00000000E+00  0.00000000E+00
  0.00000000E+00  0.00000000E+00  0.00000000E+00
  0.00000000E+00  0.00000000E+00  0.00000000E+00
  0.00000000E+00  0.00000000E+00  0.00000000E+00
  0.00000000E+00  0.00000000E+00  0.00000000E+00
