generated by pypospack                  
   4.98831000000000     
     1.3638341294898579    0.0010301884363590   -0.0006900450187939
     0.0015705548400948    2.0428582646938853   -0.0012686977289327
    -0.0010081135259909   -0.0012352446708567    2.0437450835064683
   Hf   Nb   Ta   Zr
     9    10    12     5
Direct
  0.7428129473940042  0.1623452128036252  0.4919280493716622
  0.7539714311764275  0.8313402308184140  0.8235191824055295
  0.4989980051238827  0.3413270264233385  0.9947484949232280
  0.2447853172687984  0.1721856380469645  0.1758805966319423
  0.0034272600008606  0.3386808993115265  0.6644481790855076
  0.2435848229584030  0.8328564807246375  0.5011472910984617
  0.7541360424095664  0.1472183963834748  0.8281932369641491
  0.5021470483099886  0.6683027185796103  0.3296753568702493
  0.7686779345558207  0.4892543822537222  0.1777200755497149
  0.5032805176419521  0.9921501144349277  0.3261938205953422
  0.9944288212558411  0.9980980539178743  0.3302990876166628
  0.2535957570085074  0.1611809389932335  0.4921820324530058
  0.0045179448279595  0.0011223534764844  0.6570580841827920
  0.9981048794923834  0.6678251146048757  0.3339420000460862
  0.0002792958708898  0.6629438839829748  0.6637504685934994
  0.4949094879804138  0.9929341608170197  0.6551952562791846
  0.5000055977630126  0.6633681991545486  0.6611710701847011
  0.0066397858374097  0.3344787898978527  0.3492480762822513
  0.4933799230203438  0.3402558667773832  0.3412413516301537
  0.7548223960657008  0.8367853349176488  0.5030598003298630
  0.2362773101278626  0.4902989333336383  0.1788939177052996
  0.2460483098240492  0.5083102769131587  0.4975689210554927
  0.2434631815355295  0.5263299801710808  0.8256347564527273
  0.0084905400981901  0.6706447564754404  0.0013287575854504
  0.2280819442759969  0.8382349493118795  0.1754080169111901
  0.7538255540386599  0.5019782084207545  0.4944182781486143
  0.7722937227158162  0.8339058578272610  0.1727068353182343
  0.9949426937274690  0.9872498794468133  0.0105675309656820
  0.7522257324914020  0.1694640977362749  0.1789115569902398
  0.2442776233608291  0.8311117614309348  0.8245079445590130
  0.7591691401776014  0.5237332444057340  0.8282615098237568
  0.2449406837165104  0.1422803446652319  0.8305857356908580
  0.0032082551856292  0.3403955990965343  0.9851635889677364
  0.5043442291679290  0.9938761251003841  0.0150218232928177
  0.4978835491925703  0.3422803464139404  0.6732028965787884
  0.4940213144017926  0.6652538429308067  0.0072144188601307
 
  0.00000000E+00  0.00000000E+00  0.00000000E+00
  0.00000000E+00  0.00000000E+00  0.00000000E+00
  0.00000000E+00  0.00000000E+00  0.00000000E+00
  0.00000000E+00  0.00000000E+00  0.00000000E+00
  0.00000000E+00  0.00000000E+00  0.00000000E+00
  0.00000000E+00  0.00000000E+00  0.00000000E+00
  0.00000000E+00  0.00000000E+00  0.00000000E+00
  0.00000000E+00  0.00000000E+00  0.00000000E+00
  0.00000000E+00  0.00000000E+00  0.00000000E+00
  0.00000000E+00  0.00000000E+00  0.00000000E+00
  0.00000000E+00  0.00000000E+00  0.00000000E+00
  0.00000000E+00  0.00000000E+00  0.00000000E+00
  0.00000000E+00  0.00000000E+00  0.00000000E+00
  0.00000000E+00  0.00000000E+00  0.00000000E+00
  0.00000000E+00  0.00000000E+00  0.00000000E+00
  0.00000000E+00  0.00000000E+00  0.00000000E+00
  0.00000000E+00  0.00000000E+00  0.00000000E+00
  0.00000000E+00  0.00000000E+00  0.00000000E+00
  0.00000000E+00  0.00000000E+00  0.00000000E+00
  0.00000000E+00  0.00000000E+00  0.00000000E+00
  0.00000000E+00  0.00000000E+00  0.00000000E+00
  0.00000000E+00  0.00000000E+00  0.00000000E+00
  0.00000000E+00  0.00000000E+00  0.00000000E+00
  0.00000000E+00  0.00000000E+00  0.00000000E+00
  0.00000000E+00  0.00000000E+00  0.00000000E+00
  0.00000000E+00  0.00000000E+00  0.00000000E+00
  0.00000000E+00  0.00000000E+00  0.00000000E+00
  0.00000000E+00  0.00000000E+00  0.00000000E+00
  0.00000000E+00  0.00000000E+00  0.00000000E+00
  0.00000000E+00  0.00000000E+00  0.00000000E+00
  0.00000000E+00  0.00000000E+00  0.00000000E+00
  0.00000000E+00  0.00000000E+00  0.00000000E+00
  0.00000000E+00  0.00000000E+00  0.00000000E+00
  0.00000000E+00  0.00000000E+00  0.00000000E+00
  0.00000000E+00  0.00000000E+00  0.00000000E+00
  0.00000000E+00  0.00000000E+00  0.00000000E+00
