generated by pypospack                  
   4.98831000000000     
     1.4014036719259124    0.0076127010815954   -0.0018710374005500
     0.0113715528006804    2.0612834583111104    0.0055427566156243
    -0.0026795002226652    0.0055363276087357    2.0668976981967289
   Hf   Nb   Zr   Ta
    12     4     9    11
Direct
  0.4712224542806526  0.3186808611243379  0.9920833579371483
  0.7427698810520461  0.4873862484998622  0.1714545510757417
  0.2551142056181923  0.8282833939263569  0.8218277272402214
  0.7504084640127466  0.8256837275532458  0.4999944174896004
  0.7318869926068460  0.4996934048815945  0.8310625890208446
  0.2738037154157110  0.5054401528845689  0.1712510716177148
  0.0056290871057231  0.6663378267540999  0.3259352669515292
  0.4749674960450506  0.3166528031096598  0.3436513495927520
  0.5172518434059223  0.6871123937844954  0.0171907138167344
  0.5181232290110185  0.0255843796446240  0.6633649956594133
  0.9763845360521879  0.0151562838862227  0.6724103836577585
  0.7422640716793993  0.8099840642806023  0.8042238538476335
  0.7644578927544142  0.1813229401188141  0.4946076528655518
  0.2244694361243850  0.1605781532274952  0.1749713331260239
  0.7399714615908679  0.1900592008968812  0.8356298095575920
  0.2510300082481761  0.1519155670893636  0.8250420060127820
  0.4995531952866487  0.0001412897424743  0.0023136820887322
  0.7453900941578292  0.4988240773458170  0.4960513500298460
  0.9940714942348703  0.9932468436000704  0.0014316425315651
  0.0270499707255090  0.3323652532320864  0.9901381253175012
  0.4949562179993819  0.0071930379668266  0.3325961446928561
  0.2513476163458515  0.8346005718081286  0.5040590983199222
  0.7689086739606087  0.1778087447383900  0.1708321336455370
  0.9963312288329361  0.6749800080070851  0.0050799487681031
  0.0047673986630967  0.3333793842309095  0.6691771378859601
  0.7572718590352056  0.8440278598260135  0.1942143464588708
  0.2270975745253180  0.1618219918672423  0.4996973464795907
  0.0248050033965525  0.3318324583714183  0.3416191304861390
  0.2699381288715163  0.5089516231229039  0.8231696382979031
  0.2500131222033661  0.8328953001386721  0.1784535368709053
  0.4880634478006140  0.3284509080852286  0.6646597992754913
  0.2541659677478791  0.4981412816152795  0.5013871342464485
  0.5018606223693072  0.6763855213589524  0.3263321280229493
  0.4772114078359763  0.6487182427059262  0.6547162281148050
  0.0226890752375902  0.6458773198881032  0.6652636996316722
  0.0047541257666005  0.0005018806862382  0.3341046693661433
 
  0.00000000E+00  0.00000000E+00  0.00000000E+00
  0.00000000E+00  0.00000000E+00  0.00000000E+00
  0.00000000E+00  0.00000000E+00  0.00000000E+00
  0.00000000E+00  0.00000000E+00  0.00000000E+00
  0.00000000E+00  0.00000000E+00  0.00000000E+00
  0.00000000E+00  0.00000000E+00  0.00000000E+00
  0.00000000E+00  0.00000000E+00  0.00000000E+00
  0.00000000E+00  0.00000000E+00  0.00000000E+00
  0.00000000E+00  0.00000000E+00  0.00000000E+00
  0.00000000E+00  0.00000000E+00  0.00000000E+00
  0.00000000E+00  0.00000000E+00  0.00000000E+00
  0.00000000E+00  0.00000000E+00  0.00000000E+00
  0.00000000E+00  0.00000000E+00  0.00000000E+00
  0.00000000E+00  0.00000000E+00  0.00000000E+00
  0.00000000E+00  0.00000000E+00  0.00000000E+00
  0.00000000E+00  0.00000000E+00  0.00000000E+00
  0.00000000E+00  0.00000000E+00  0.00000000E+00
  0.00000000E+00  0.00000000E+00  0.00000000E+00
  0.00000000E+00  0.00000000E+00  0.00000000E+00
  0.00000000E+00  0.00000000E+00  0.00000000E+00
  0.00000000E+00  0.00000000E+00  0.00000000E+00
  0.00000000E+00  0.00000000E+00  0.00000000E+00
  0.00000000E+00  0.00000000E+00  0.00000000E+00
  0.00000000E+00  0.00000000E+00  0.00000000E+00
  0.00000000E+00  0.00000000E+00  0.00000000E+00
  0.00000000E+00  0.00000000E+00  0.00000000E+00
  0.00000000E+00  0.00000000E+00  0.00000000E+00
  0.00000000E+00  0.00000000E+00  0.00000000E+00
  0.00000000E+00  0.00000000E+00  0.00000000E+00
  0.00000000E+00  0.00000000E+00  0.00000000E+00
  0.00000000E+00  0.00000000E+00  0.00000000E+00
  0.00000000E+00  0.00000000E+00  0.00000000E+00
  0.00000000E+00  0.00000000E+00  0.00000000E+00
  0.00000000E+00  0.00000000E+00  0.00000000E+00
  0.00000000E+00  0.00000000E+00  0.00000000E+00
  0.00000000E+00  0.00000000E+00  0.00000000E+00
