generated by pypospack                  
   4.98831000000000     
     1.4028340232104399   -0.0034119154517832    0.0040026452661903
    -0.0049267945755966    2.0558870051947085    0.0087485568885439
     0.0059311422030944    0.0086374452196418    2.0486384125648072
   Hf   Zr   Nb   Ta
    12     8     4    12
Direct
  0.7598429482214163  0.4972666744005208  0.1715043950525825
  0.2480576390596028  0.8297985449471432  0.8395121744290147
  0.7267332837035341  0.8302311101893886  0.4920900916056971
  0.7395490217323849  0.4966971646749710  0.8379471444761616
  0.2233663530762383  0.5046967824333377  0.1556123421636246
  0.0190882565380269  0.6780367720051022  0.3407109358192763
  0.7416557205764913  0.1754696781578627  0.4872000598592713
  0.4598219197936217  0.3359050484970767  0.3279006417408833
  0.0165305664642957  0.9980793669020853  0.3335151230651234
  0.5087767901675591  0.6709264289804052  0.0075086170331221
  0.5266759508212476  0.0084428394836602  0.6846543643712081
  0.9883277840331943  0.0050430467713264  0.6710025802865391
  0.7352550421452425  0.4962822116792009  0.4924536325615836
  0.9892044240534515  0.0007850424360421 -0.0010025550228385
  0.0155907474053230  0.3204675086506126  0.9843220649883356
  0.0063134221900362  0.6623423763593849  0.6604140875907799
  0.4739867645870335  0.0028912449657783  0.3168493641807772
  0.2839133228191117  0.8322904257157495  0.5125975390489603
  0.0137198694479844  0.3332953468874496  0.6638723382564689
  0.7496046784104126  0.1780903167810249  0.1725563553530103
  0.2436797504619517  0.1691413192790901  0.1581113813678719
  0.9817926434410404  0.6777387828318325  0.0038957140963191
  0.7344526321052169  0.1805082656132305  0.8402497548736236
  0.2684263099274423  0.1613821343959910  0.8318415598854113
  0.7426615007811065  0.8304845658713408  0.1747013973089640
  0.2617764069730038  0.1662517527243475  0.5088885507937256
  0.0352187334263261  0.3302712712493486  0.3462447704141843
  0.2691466757381610  0.4992910951161842  0.8303093096177199
  0.2472515089866715  0.8279615693304302  0.1504869937751258
  0.4907978036384948  0.3280546981929093  0.6718166421865324
  0.4807628574832286  0.3253194338099924  0.9939063612219843
  0.2770687623002973  0.5044934800967309  0.5063010588927795
  0.4808861388633294  0.6656845016720874  0.3153891709643905
  0.5037982961576206  0.9979055950306623  0.0004773379173567
  0.5027369519912038  0.6582428299555819  0.6792859206284005
  0.7535255224786971  0.8202357739121118  0.8368737791960340
 
  0.00000000E+00  0.00000000E+00  0.00000000E+00
  0.00000000E+00  0.00000000E+00  0.00000000E+00
  0.00000000E+00  0.00000000E+00  0.00000000E+00
  0.00000000E+00  0.00000000E+00  0.00000000E+00
  0.00000000E+00  0.00000000E+00  0.00000000E+00
  0.00000000E+00  0.00000000E+00  0.00000000E+00
  0.00000000E+00  0.00000000E+00  0.00000000E+00
  0.00000000E+00  0.00000000E+00  0.00000000E+00
  0.00000000E+00  0.00000000E+00  0.00000000E+00
  0.00000000E+00  0.00000000E+00  0.00000000E+00
  0.00000000E+00  0.00000000E+00  0.00000000E+00
  0.00000000E+00  0.00000000E+00  0.00000000E+00
  0.00000000E+00  0.00000000E+00  0.00000000E+00
  0.00000000E+00  0.00000000E+00  0.00000000E+00
  0.00000000E+00  0.00000000E+00  0.00000000E+00
  0.00000000E+00  0.00000000E+00  0.00000000E+00
  0.00000000E+00  0.00000000E+00  0.00000000E+00
  0.00000000E+00  0.00000000E+00  0.00000000E+00
  0.00000000E+00  0.00000000E+00  0.00000000E+00
  0.00000000E+00  0.00000000E+00  0.00000000E+00
  0.00000000E+00  0.00000000E+00  0.00000000E+00
  0.00000000E+00  0.00000000E+00  0.00000000E+00
  0.00000000E+00  0.00000000E+00  0.00000000E+00
  0.00000000E+00  0.00000000E+00  0.00000000E+00
  0.00000000E+00  0.00000000E+00  0.00000000E+00
  0.00000000E+00  0.00000000E+00  0.00000000E+00
  0.00000000E+00  0.00000000E+00  0.00000000E+00
  0.00000000E+00  0.00000000E+00  0.00000000E+00
  0.00000000E+00  0.00000000E+00  0.00000000E+00
  0.00000000E+00  0.00000000E+00  0.00000000E+00
  0.00000000E+00  0.00000000E+00  0.00000000E+00
  0.00000000E+00  0.00000000E+00  0.00000000E+00
  0.00000000E+00  0.00000000E+00  0.00000000E+00
  0.00000000E+00  0.00000000E+00  0.00000000E+00
  0.00000000E+00  0.00000000E+00  0.00000000E+00
  0.00000000E+00  0.00000000E+00  0.00000000E+00
