generated by pypospack
   4.94975
  1.652859   0.001182   0.001709
  0.001193   1.640171  -0.004230
  0.001732  -0.004261   1.625800
 Pt Au
 16 16
Direct
  0.256617  -0.002771   0.252273
 -0.000193  -0.003262   0.503491
 -0.000485   0.501725  -0.001184
  0.249875   0.748123  -0.001504
 -0.000538   0.502620   0.502145
  0.249210   0.506732   0.750444
  0.001681   0.748382   0.751715
  0.747810   0.252906   0.000339
  0.503458   0.250945   0.253621
  0.500673  -0.000059   0.499843
  0.746873  -0.000278   0.747550
  0.503461   0.249647   0.745600
  0.747775   0.495792   0.249169
  0.496512   0.750168   0.252242
  0.499763   0.499789   0.499562
  0.496268   0.749059   0.745655
 -0.000110  -0.000520  -0.000828
  0.253203   0.251334  -0.000252
  0.000937   0.249853   0.250523
  0.251464   0.250535   0.501096
  0.251303  -0.001059   0.749606
 -0.000687   0.251199   0.751453
  0.250102   0.500381   0.250280
  0.000201   0.749326   0.249000
  0.249058   0.750330   0.499926
  0.500655   0.000053  -0.000894
  0.748744   0.000565   0.250686
  0.751461   0.249938   0.500253
  0.499220   0.500290  -0.000772
  0.747828   0.748784  -0.001013
  0.748656   0.748863   0.500057
  0.749207   0.500608   0.749918
