generated by pypospack
   4.98831
  1.401636  -0.000036   0.007046
 -0.000023   2.058351  -0.001015
  0.010395  -0.001230   2.039820
 Hf Ta Zr Nb
 11 5 9 11
Direct
  0.478369   0.013497  -0.000784
  0.266170   0.504117   0.167248
  0.493853   0.662772   0.648438
  0.256436   0.508771   0.844699
  0.232717   0.173370   0.486696
  0.006994   0.329881   0.005597
  0.967538   0.667642   0.022687
  0.274973   0.821319   0.161807
  0.468669   0.999162   0.660274
  0.764927   0.837287   0.504965
  0.259638   0.820602   0.845579
  0.730188   0.495674   0.179161
  0.038377   0.998208   0.670158
  0.511958   0.665741   0.346309
  0.770710   0.503638   0.494467
  0.983243   0.669301   0.325839
  0.998886   0.990196   0.315229
  0.009068   0.003147   0.006417
  0.764295   0.166617   0.501841
  0.749937   0.162266   0.829510
  0.724209   0.172047   0.170654
  0.494119   0.335646   0.659666
  0.755998   0.839044   0.822852
  0.226374   0.495006   0.490257
  0.759761   0.498862   0.824577
  0.262500   0.171844   0.174461
  0.017743   0.670824   0.656013
  0.539453   0.664367   0.006328
  0.719043   0.832416   0.178620
  0.507332   0.344048   0.341493
  0.985248   0.342082   0.316191
  0.014252   0.328664   0.682273
  0.239939   0.830137   0.489742
  0.486202   0.320972   0.998424
  0.247982   0.168198   0.834065
  0.492896   0.992644   0.338247
