generated by pypospack
   4.98831
  1.407955   0.003951  -0.003386
  0.005872   2.064046  -0.002588
 -0.005074  -0.002640   2.064921
 Hf Nb Ta Zr
 10 5 10 11
Direct
  0.965914   0.320924   0.676484
  0.756697   0.162569   0.161162
  0.018646   0.997362   0.672905
  0.979052   0.349135   0.323363
  0.229082   0.496275   0.512190
  0.001805   0.665427   0.318056
  0.474465   0.977787   0.014538
  0.500798  -0.000686   0.333390
  0.531640   0.328543   0.652733
  0.738368   0.835317   0.832734
  0.023858   0.682807   0.679134
  0.264804   0.828040   0.824858
  0.510456   0.347455   0.000360
  0.745689   0.505330   0.842621
  0.242367   0.182016   0.160961
  0.752794   0.839981   0.164010
  0.985835   0.346746   0.001408
  0.995602   0.988300   0.328864
  0.265569   0.488416   0.150857
  0.245069   0.830292   0.186656
  0.242151   0.834556   0.492735
  0.482044   0.995554   0.655296
  0.732349   0.496687   0.148136
  0.771188   0.146893   0.490533
  0.500144   0.667790   0.005300
  0.500091   0.664198   0.326362
  0.729026   0.156520   0.846275
  0.021375   0.990815  -0.001229
  0.227854   0.170422   0.496374
  0.269312   0.176901   0.837393
  0.002255   0.665116   0.005888
  0.515020   0.335620   0.338618
  0.781719   0.524915   0.515397
  0.486408   0.671619   0.666208
  0.759371   0.836031   0.504923
  0.251186   0.494334   0.834518
