generated by pypospack                  
   4.98831000000000     
     1.3690384678521894    0.0014887496027071   -0.0004968057132391
     0.0022583212777504    2.0425688238865916   -0.0055462717025997
    -0.0007150244069601   -0.0054900326680507    2.0476639846153106
   Ta   Zr   Nb   Hf
    11     6    10     9
Direct
  0.2290826376422894  0.4956891605575320  0.1805625764641297
  0.9937217707560939  0.3326975656516674  0.3488032420623509
  0.2440846748987886  0.5084985416845001  0.4961541579552165
  0.2428090505717096  0.5190410261611370  0.8220506173138221
  0.0152871926742386  0.6771396085862262  0.0042159698214222
  0.2276792655524494  0.8400748888878031  0.1817284598967969
  0.5020879628349318  0.3377717356634004  0.3386406390287007
  0.7523309895681292  0.5086378264319772  0.4966332022373330
  0.7698544357440003  0.8350583251821561  0.1785488499528580
  0.9973190935255857  0.9830468484356516  0.0102478969423548
  0.7546812160358293  0.1691827173190993  0.1699259523845080
  0.2518887962749133  0.1428860495093630  0.8291018928467864
  0.0351713959285943  0.3362516396166043  0.9894880919871065
  0.5022686336412796  0.9859819018767810  0.0153081417266664
  0.4976606105400346  0.3345824389771389  0.6594074874068410
  0.4886966635600791  0.6693087218397932  0.0083003070923380
  0.7532752012235948  0.8324959937801681  0.8219310859560741
  0.5067499276461324  0.0018447609173026  0.3301297123518123
  0.9887011749249585  0.0064325768052600  0.3330114806434786
  0.2517286614183936  0.1619528131985177  0.4886621469226657
  0.9990708645337932  0.0121965045222097  0.6578489380132219
  0.0007370705862672  0.6640647443589037  0.3319857134446068
  0.0089928146145711  0.6609093461302028  0.6672769220327426
  0.2443334106942607  0.8316699925107321  0.8224894809860598
  0.7448535246033968  0.1611070863617181  0.4904180706552743
  0.5002185949789726  0.0077451324927646  0.6537297893599308
  0.4899529848011037  0.6580311345229255  0.6636054774949941
  0.4805832748259812  0.3398467043064177  0.0027033370565849
  0.2430166275602643  0.1657570507195257  0.1785257231345742
  0.0020491081709896  0.3308966959515240  0.6547637300221595
  0.2455458659074556  0.8353538167188745  0.5017142059308567
  0.7541790133817909  0.1583821745074321  0.8410038153071401
  0.7609238487810792  0.5084048157028725  0.8358270029679636
  0.4968941727304781  0.6636160717600615  0.3262226991754120
  0.7707661826080399  0.4919038358973086  0.1655716812111007
  0.7528022862595528  0.8315397524544474  0.5034645022141229
 
  0.00000000E+00  0.00000000E+00  0.00000000E+00
  0.00000000E+00  0.00000000E+00  0.00000000E+00
  0.00000000E+00  0.00000000E+00  0.00000000E+00
  0.00000000E+00  0.00000000E+00  0.00000000E+00
  0.00000000E+00  0.00000000E+00  0.00000000E+00
  0.00000000E+00  0.00000000E+00  0.00000000E+00
  0.00000000E+00  0.00000000E+00  0.00000000E+00
  0.00000000E+00  0.00000000E+00  0.00000000E+00
  0.00000000E+00  0.00000000E+00  0.00000000E+00
  0.00000000E+00  0.00000000E+00  0.00000000E+00
  0.00000000E+00  0.00000000E+00  0.00000000E+00
  0.00000000E+00  0.00000000E+00  0.00000000E+00
  0.00000000E+00  0.00000000E+00  0.00000000E+00
  0.00000000E+00  0.00000000E+00  0.00000000E+00
  0.00000000E+00  0.00000000E+00  0.00000000E+00
  0.00000000E+00  0.00000000E+00  0.00000000E+00
  0.00000000E+00  0.00000000E+00  0.00000000E+00
  0.00000000E+00  0.00000000E+00  0.00000000E+00
  0.00000000E+00  0.00000000E+00  0.00000000E+00
  0.00000000E+00  0.00000000E+00  0.00000000E+00
  0.00000000E+00  0.00000000E+00  0.00000000E+00
  0.00000000E+00  0.00000000E+00  0.00000000E+00
  0.00000000E+00  0.00000000E+00  0.00000000E+00
  0.00000000E+00  0.00000000E+00  0.00000000E+00
  0.00000000E+00  0.00000000E+00  0.00000000E+00
  0.00000000E+00  0.00000000E+00  0.00000000E+00
  0.00000000E+00  0.00000000E+00  0.00000000E+00
  0.00000000E+00  0.00000000E+00  0.00000000E+00
  0.00000000E+00  0.00000000E+00  0.00000000E+00
  0.00000000E+00  0.00000000E+00  0.00000000E+00
  0.00000000E+00  0.00000000E+00  0.00000000E+00
  0.00000000E+00  0.00000000E+00  0.00000000E+00
  0.00000000E+00  0.00000000E+00  0.00000000E+00
  0.00000000E+00  0.00000000E+00  0.00000000E+00
  0.00000000E+00  0.00000000E+00  0.00000000E+00
  0.00000000E+00  0.00000000E+00  0.00000000E+00
