generated by pypospack                  
   4.98831000000000     
     1.3821131680392675    0.0030265379192332    0.0041863674642263
     0.0044979334118191    2.0531979117207588    0.0006634753129210
     0.0061644417025146    0.0006009520420520    2.0480114268333587
   Ta   Nb   Hf   Zr
     9    10    11     6
Direct
  0.2508041800211612  0.1651595719626895  0.5088049484110287
  0.0344010779266444  0.3344708538928152  0.3475909498623267
  0.0143829622799990  0.3303636580385926  0.6709185631892715
  0.2641293161129409  0.5024659982099726  0.8372867205154613
  0.2829090021186061  0.8414412046264146  0.5173043837856102
  0.2629534826432083  0.8259636314115584  0.8367598277622013
  0.2443342681324337  0.8166753768368273  0.1460628172292874
  0.4828102634262752  0.3315190648987342  0.6671748131079788
  0.4899524941515018  0.3172148827600331  0.9937623178916276
  0.5030195518394550  0.6762044895781677 -0.0016009683872205
  0.7388896022453031  0.8215820139324405  0.8332005499365353
  0.2307556148296687  0.1742946278962529  0.1666193156172353
  0.2462557079908601  0.4971996013601895  0.5153091300862278
  0.9978868496924038  0.6736521849565996  0.9926750038212728
  0.4943968844294928  0.0064462119837498  0.6794109594004738
  0.7366109345372833  0.1784899214399958  0.8175840117772546
  0.7586609479437484  0.8220133021318619  0.1588778263402084
  0.2609346348818200  0.1683265127297283  0.8230436291016932
  0.4908071043972927  0.6652606645348862  0.6695881454010210
  0.7222169755009477  0.8426157523166039  0.5075572678922863
  0.0049277355618438  0.9998068992122491  0.6740089573556902
  0.7327940651407565  0.4988291254524789  0.8332887463268875
  0.2485602595892406  0.5063568660252695  0.1482429217612055
  0.0156574783509597  0.6765147664127149  0.3428655160422307
  0.5023685058795272  0.0034264326533887  0.9994644480241021
  0.7518258478825576  0.1712294333233341  0.5005153870210030
  0.4865301182528727  0.6686007524456489  0.3335127303022913
  0.4660667203919511  0.3365305247560866  0.3359781639116952
  0.0202849674179185  0.9891699345611216  0.3338932943794090
  0.7670536440249444  0.1821887460674116  0.1837661140813019
  0.7530267165195734  0.4895449937956645  0.5003385001836627
  0.9943810919470444 -0.0026351830242521  0.9959574262562457
  0.0066765788128984  0.3230894457292002  0.9816275844968599
  0.0059508671908362  0.6694191762989660  0.6659744783010562
  0.4844738031174979  0.9981440856222186  0.3171780054476581
  0.7522947448185200  0.4984334751703719  0.1654525133669261
 
  0.00000000E+00  0.00000000E+00  0.00000000E+00
  0.00000000E+00  0.00000000E+00  0.00000000E+00
  0.00000000E+00  0.00000000E+00  0.00000000E+00
  0.00000000E+00  0.00000000E+00  0.00000000E+00
  0.00000000E+00  0.00000000E+00  0.00000000E+00
  0.00000000E+00  0.00000000E+00  0.00000000E+00
  0.00000000E+00  0.00000000E+00  0.00000000E+00
  0.00000000E+00  0.00000000E+00  0.00000000E+00
  0.00000000E+00  0.00000000E+00  0.00000000E+00
  0.00000000E+00  0.00000000E+00  0.00000000E+00
  0.00000000E+00  0.00000000E+00  0.00000000E+00
  0.00000000E+00  0.00000000E+00  0.00000000E+00
  0.00000000E+00  0.00000000E+00  0.00000000E+00
  0.00000000E+00  0.00000000E+00  0.00000000E+00
  0.00000000E+00  0.00000000E+00  0.00000000E+00
  0.00000000E+00  0.00000000E+00  0.00000000E+00
  0.00000000E+00  0.00000000E+00  0.00000000E+00
  0.00000000E+00  0.00000000E+00  0.00000000E+00
  0.00000000E+00  0.00000000E+00  0.00000000E+00
  0.00000000E+00  0.00000000E+00  0.00000000E+00
  0.00000000E+00  0.00000000E+00  0.00000000E+00
  0.00000000E+00  0.00000000E+00  0.00000000E+00
  0.00000000E+00  0.00000000E+00  0.00000000E+00
  0.00000000E+00  0.00000000E+00  0.00000000E+00
  0.00000000E+00  0.00000000E+00  0.00000000E+00
  0.00000000E+00  0.00000000E+00  0.00000000E+00
  0.00000000E+00  0.00000000E+00  0.00000000E+00
  0.00000000E+00  0.00000000E+00  0.00000000E+00
  0.00000000E+00  0.00000000E+00  0.00000000E+00
  0.00000000E+00  0.00000000E+00  0.00000000E+00
  0.00000000E+00  0.00000000E+00  0.00000000E+00
  0.00000000E+00  0.00000000E+00  0.00000000E+00
  0.00000000E+00  0.00000000E+00  0.00000000E+00
  0.00000000E+00  0.00000000E+00  0.00000000E+00
  0.00000000E+00  0.00000000E+00  0.00000000E+00
  0.00000000E+00  0.00000000E+00  0.00000000E+00
