generated by pypospack                  
   4.98831000000000     
     1.3803511172776379   -0.0019011024690525    0.0008677412949548
    -0.0027864761783049    2.0538546138017235    0.0028681765467147
     0.0013522402010230    0.0027895639951072    2.0491336856668019
   Ta   Nb   Hf   Zr
    10     9     9     8
Direct
  0.2452455726120703  0.1622448954786215  0.5147655876841880
  0.0261396608795891  0.3206039438010426  0.3328385552935632
  0.0010384596211425  0.3375117888393646  0.6753174901293759
  0.2514809658232086  0.4829914360721815  0.8375939219933325
  0.2510974400559156  0.8555568783690938  0.5204398032984876
  0.7483764393670612  0.8501998393156037  0.5155074472292426
  0.2471583651897210  0.8436162164003395  0.8326565531488441
  0.2439013403867906  0.8147756638043145  0.1433689862362020
  0.4916073756115939  0.3438768471413594  0.6650586203442249
  0.5069343614045362  0.3280987753936774  0.9982119603040306
  0.2511847608996290  0.1740319128164529  0.1628520355239803
  0.0045151955714336  0.0024594716574027  0.6681710515909063
  0.2256423783773598  0.4879164479822036  0.5005808071559582
  0.0046330072596965  0.6662935748881276  0.9879162935779728
  0.7507531030465161  0.1839134660192288  0.1840404508299177
  0.4981244214935977  0.0001113374573316  0.6661750383840442
  0.7348807744427295  0.1699078653586386  0.8215424476066440
  0.7628370429997625  0.8103585306114871  0.1594125199107638
  0.7456410621162480  0.4882505821152996  0.8261777964136544
  0.2625013894720264  0.1683924082211837  0.8279777895223431
  0.2473008210414639  0.5061196058166249  0.1581925743951411
  0.0148135185439618  0.6841376413288491  0.3437147726328132
  0.5090290081621953  0.0033660358670087  0.0129459811958792
  0.7533166899498656  0.1672336921085399  0.5044130805754530
  0.7654927377460109  0.4870961821055691  0.4937895834109620
  0.4887325637688050  0.6791539030905784  0.3430496279969477
  0.4889078015131588  0.6602532107271093  0.6620892625891736
  0.4737487957016233  0.3292500205006432  0.3374124443017573
  0.9928041848554574  0.0035951014021563  0.0096391048499560
  0.0043669302174613  0.9972399350027459  0.3275862773115655
  0.9857075913069465  0.3238654731174855  0.9973295584582809
  0.0063739046312672  0.6619638597246569  0.6665574382972667
  0.4990923143954024  0.9951020572903293  0.3257245475240463
  0.7541929697792428  0.5036772926665887  0.1717543808152149
  0.5036471196731639  0.6653337647037179  0.9826927005004452
  0.7587709320833530  0.8415043428044396  0.8225025089674237
 
  0.00000000E+00  0.00000000E+00  0.00000000E+00
  0.00000000E+00  0.00000000E+00  0.00000000E+00
  0.00000000E+00  0.00000000E+00  0.00000000E+00
  0.00000000E+00  0.00000000E+00  0.00000000E+00
  0.00000000E+00  0.00000000E+00  0.00000000E+00
  0.00000000E+00  0.00000000E+00  0.00000000E+00
  0.00000000E+00  0.00000000E+00  0.00000000E+00
  0.00000000E+00  0.00000000E+00  0.00000000E+00
  0.00000000E+00  0.00000000E+00  0.00000000E+00
  0.00000000E+00  0.00000000E+00  0.00000000E+00
  0.00000000E+00  0.00000000E+00  0.00000000E+00
  0.00000000E+00  0.00000000E+00  0.00000000E+00
  0.00000000E+00  0.00000000E+00  0.00000000E+00
  0.00000000E+00  0.00000000E+00  0.00000000E+00
  0.00000000E+00  0.00000000E+00  0.00000000E+00
  0.00000000E+00  0.00000000E+00  0.00000000E+00
  0.00000000E+00  0.00000000E+00  0.00000000E+00
  0.00000000E+00  0.00000000E+00  0.00000000E+00
  0.00000000E+00  0.00000000E+00  0.00000000E+00
  0.00000000E+00  0.00000000E+00  0.00000000E+00
  0.00000000E+00  0.00000000E+00  0.00000000E+00
  0.00000000E+00  0.00000000E+00  0.00000000E+00
  0.00000000E+00  0.00000000E+00  0.00000000E+00
  0.00000000E+00  0.00000000E+00  0.00000000E+00
  0.00000000E+00  0.00000000E+00  0.00000000E+00
  0.00000000E+00  0.00000000E+00  0.00000000E+00
  0.00000000E+00  0.00000000E+00  0.00000000E+00
  0.00000000E+00  0.00000000E+00  0.00000000E+00
  0.00000000E+00  0.00000000E+00  0.00000000E+00
  0.00000000E+00  0.00000000E+00  0.00000000E+00
  0.00000000E+00  0.00000000E+00  0.00000000E+00
  0.00000000E+00  0.00000000E+00  0.00000000E+00
  0.00000000E+00  0.00000000E+00  0.00000000E+00
  0.00000000E+00  0.00000000E+00  0.00000000E+00
  0.00000000E+00  0.00000000E+00  0.00000000E+00
  0.00000000E+00  0.00000000E+00  0.00000000E+00
