generated by pypospack                  
   4.98831000000000     
     1.3960593684361289    0.0013825329935665    0.0001990425428246
     0.0020490958550139    2.0676752454055216   -0.0008255260424554
     0.0001987092089547   -0.0008907467998275    2.0658365928879601
   Zr   Hf   Nb   Ta
    10    11     4    11
Direct
  0.4999393484725345  0.6632576117455271  0.3237723786059332
  0.7368566936315863  0.1566516286753292  0.8377031597961051
  0.0224006820201863  0.9872823088083342  0.0009536229240026
  0.2214129650308685  0.1693462684167260  0.4873113500282219
  0.2714777759952809  0.1768380615734057  0.8420993539912441
  0.0065781095289011  0.6657458112064101  0.0046529286667419
  0.5130373787062723  0.3344905261616725  0.3391508155088538
  0.7771216863999794  0.5247214247439485  0.5139416466533642
  0.4879804663648664  0.6637688235204162  0.6766176010950682
  0.7574102935421000  0.8343195263647406  0.5087548803854897
  0.9812853926002654  0.3305184735302172  0.6792015937722369
  0.7548447093946945  0.1649393977628746  0.1558731053375791
  0.2404826818615250  0.1785983672434711  0.1641058689909497
  0.0285535819995390  0.9978188868159308  0.6699035774990590
  0.9745351152522284  0.3480825079257144  0.3250075212189658
  0.2288103936693509  0.5062335432480332  0.5090714659786874
  0.9965658623131238  0.6642552685009261  0.3144455655680729
  0.4760907610161640  0.9769558499741270  0.0141762806933473
  0.5054687519982259 -0.0001409838398464  0.3354116651321842
  0.5189397838358983  0.3345529487871765  0.6581448111983315
  0.7416843246536891  0.8376894255286605  0.8314398159897018
  0.0229850236673384  0.6749045579905364  0.6853156287377298
  0.2655823209067047  0.8267890633623544  0.8249040812613559
  0.5032826409092452  0.3475935648172515  0.9952001585831244
  0.7480718765170358  0.5053172007814295  0.8417531542682716
  0.7506385985861979  0.8407102485877775  0.1636826747120707
  0.9974024578111572  0.3486654865018617  0.9933699250925533
  0.9856785083451346  0.9902873768289397  0.3298685867082163
  0.2649510662170520  0.4866722703886120  0.1501476030726547
  0.2552018138372791  0.4950779878268001  0.8407524161077727
  0.2437985204719326  0.8338012363790351  0.1920141403421315
  0.2414943465374474  0.8273125848410648  0.4923937501708628
  0.4801286110303385  0.9986375110197213  0.6524115163751164
  0.7310328602596431  0.4932280776296813  0.1452377048424119
  0.7707321365072092  0.1493799944096425  0.4996688467559130
  0.4975444601089928  0.6657061619414968  0.0015448039356858
 
  0.00000000E+00  0.00000000E+00  0.00000000E+00
  0.00000000E+00  0.00000000E+00  0.00000000E+00
  0.00000000E+00  0.00000000E+00  0.00000000E+00
  0.00000000E+00  0.00000000E+00  0.00000000E+00
  0.00000000E+00  0.00000000E+00  0.00000000E+00
  0.00000000E+00  0.00000000E+00  0.00000000E+00
  0.00000000E+00  0.00000000E+00  0.00000000E+00
  0.00000000E+00  0.00000000E+00  0.00000000E+00
  0.00000000E+00  0.00000000E+00  0.00000000E+00
  0.00000000E+00  0.00000000E+00  0.00000000E+00
  0.00000000E+00  0.00000000E+00  0.00000000E+00
  0.00000000E+00  0.00000000E+00  0.00000000E+00
  0.00000000E+00  0.00000000E+00  0.00000000E+00
  0.00000000E+00  0.00000000E+00  0.00000000E+00
  0.00000000E+00  0.00000000E+00  0.00000000E+00
  0.00000000E+00  0.00000000E+00  0.00000000E+00
  0.00000000E+00  0.00000000E+00  0.00000000E+00
  0.00000000E+00  0.00000000E+00  0.00000000E+00
  0.00000000E+00  0.00000000E+00  0.00000000E+00
  0.00000000E+00  0.00000000E+00  0.00000000E+00
  0.00000000E+00  0.00000000E+00  0.00000000E+00
  0.00000000E+00  0.00000000E+00  0.00000000E+00
  0.00000000E+00  0.00000000E+00  0.00000000E+00
  0.00000000E+00  0.00000000E+00  0.00000000E+00
  0.00000000E+00  0.00000000E+00  0.00000000E+00
  0.00000000E+00  0.00000000E+00  0.00000000E+00
  0.00000000E+00  0.00000000E+00  0.00000000E+00
  0.00000000E+00  0.00000000E+00  0.00000000E+00
  0.00000000E+00  0.00000000E+00  0.00000000E+00
  0.00000000E+00  0.00000000E+00  0.00000000E+00
  0.00000000E+00  0.00000000E+00  0.00000000E+00
  0.00000000E+00  0.00000000E+00  0.00000000E+00
  0.00000000E+00  0.00000000E+00  0.00000000E+00
  0.00000000E+00  0.00000000E+00  0.00000000E+00
  0.00000000E+00  0.00000000E+00  0.00000000E+00
  0.00000000E+00  0.00000000E+00  0.00000000E+00
