generated by pypospack
   4.98831
  1.394120  -0.000429  -0.002893
 -0.000497   2.049584   0.008648
 -0.004235   0.008670   2.057913
 Zr Hf Ta Nb
 8 12 8 8
Direct
  0.487022   0.323574   0.328245
  0.741180   0.495415   0.498383
  0.006596   0.993436   0.997808
  0.502401   0.003033   0.332341
  0.259125   0.836643   0.505921
  0.774804   0.170252   0.161236
  0.005027   0.685433   0.001151
  0.003580   0.328322   0.665882
  0.253971   0.497271   0.498862
  0.477684   0.329760   0.999665
  0.766893   0.496184   0.164916
  0.269398   0.821613   0.813375
  0.751602   0.499890   0.834913
  0.224552   0.496804   0.174094
  0.994027   0.678465   0.340452
  0.493995   0.674179   0.018931
  0.521386   0.027423   0.668655
  0.984573   0.009254   0.667446
  0.730760   0.813959   0.808795
  0.494270   0.001228  -0.000075
  0.748422   0.838321   0.183416
  0.243035   0.162181   0.498168
  0.015290   0.323478   0.347089
  0.248635   0.505261   0.824953
  0.502278   0.672799   0.327054
  0.485363   0.641430   0.654287
  0.012037   0.655595   0.656468
  0.997764   0.996054   0.339967
  0.761972   0.173871   0.488705
  0.224794   0.167510   0.170563
  0.757585   0.184264   0.849529
  0.246905   0.172518   0.832499
  0.025929   0.329967   0.986733
  0.745445   0.827642   0.503600
  0.251392   0.836963   0.183123
  0.490314   0.330023   0.672850
