generated by pypospack                  
   4.98831000000000     
     1.3893136805756525    0.0011977690312029   -0.0002833135187198
     0.0012543869871604    1.4223165856748534    0.0052125407204166
    -0.0002959895906547    0.0050241690067880    1.4024018226371484
   Ta   Hf   Zr   Nb
     3     4     8     1
Direct
  0.2611706140986347  0.7931762899410695  0.7582889358633884
  0.4892418349132241  0.9803141876212799  0.0312200020140358
  0.7427058200960382  0.7250296025818604  0.2316739447462117
  0.0095779832636027  0.9784315664375480  0.0343625979010527
  0.2505476532901904  0.2623071360462941  0.2453078911335634
  0.2528945738439046  0.2164666931913252  0.7575646724975069
  0.7393283509365820  0.7881533838046151  0.7686850267063143
  0.0002631656209057  0.9785655786653259  0.4813273737013516
  0.0105365273342514  0.5185316522703496  0.9752442439750139
  0.0041562060667672  0.5190510929263249  0.5115839135792836
  0.7491303744385248  0.2677365058887526  0.2391005701894904
  0.5005156786959088  0.9847800048003700  0.4726712540109165
  0.7473633317889733  0.2289945432539357  0.7581208539040626
  0.4873107390297960  0.5150232475165325  0.9793841655744305
  0.4976186974288180  0.5156077275530828  0.5105030726109132
  0.2576384491538849  0.7278307875013340  0.2449614815924499
 
  0.00000000E+00  0.00000000E+00  0.00000000E+00
  0.00000000E+00  0.00000000E+00  0.00000000E+00
  0.00000000E+00  0.00000000E+00  0.00000000E+00
  0.00000000E+00  0.00000000E+00  0.00000000E+00
  0.00000000E+00  0.00000000E+00  0.00000000E+00
  0.00000000E+00  0.00000000E+00  0.00000000E+00
  0.00000000E+00  0.00000000E+00  0.00000000E+00
  0.00000000E+00  0.00000000E+00  0.00000000E+00
  0.00000000E+00  0.00000000E+00  0.00000000E+00
  0.00000000E+00  0.00000000E+00  0.00000000E+00
  0.00000000E+00  0.00000000E+00  0.00000000E+00
  0.00000000E+00  0.00000000E+00  0.00000000E+00
  0.00000000E+00  0.00000000E+00  0.00000000E+00
  0.00000000E+00  0.00000000E+00  0.00000000E+00
  0.00000000E+00  0.00000000E+00  0.00000000E+00
  0.00000000E+00  0.00000000E+00  0.00000000E+00
