generated by pypospack                  
   4.98831000000000     
     1.3881077818616536    0.0027969088569807    0.0055451329459676
     0.0041683754844147    2.0554155479736602    0.0009278189533325
     0.0082088740369730    0.0008605294008074    2.0465163995271451
   Ta   Nb   Zr   Hf
     8    10     6    12
Direct
  0.2497261716038457  0.1662152915561181  0.5092702096099236
  0.0376397498817769  0.3339530047871154  0.3471780957806626
  0.0137213964094734  0.3316688448875015  0.6708535941872134
  0.2660554977843523  0.5016959305787981  0.8363866665613137
  0.2829342622954817  0.8400253743131938  0.5182445842994194
  0.2470203992314371  0.8190751957427984  0.1454630950028815
  0.4832463040456135  0.3322035613761539  0.6667579809758324
  0.4892111075433698  0.3169825723718426  0.9936476428605412
  0.5113388784406103  0.6748810206096604  0.0048995452150933
  0.7385605066441088  0.8207916120887845  0.8339285486689170
  0.2315507239635596  0.1732457744504765  0.1653889613012252
  0.2468733577980572  0.4973578628873283  0.5149387721127513
  0.9901859620963449  0.6732405006654226  0.9978658621449671
  0.4967035788686995  0.0108579624440386  0.6764487055157262
  0.7355616599398200  0.1789165698961975  0.8178744889995135
  0.7568702536090109  0.8223273187004120  0.1620595804565688
  0.2615337686244222  0.1667669609218662  0.8225635334763650
  0.4938402303286081  0.6599301982983803  0.6657091949244162
  0.7533058916105856  0.4886300483184446  0.4971822793691745
  0.9887355462437204  0.9984342051191931  0.9979789869570584
  0.0078284478588163  0.3237798996526802  0.9794734276616475
  0.0026422592469857  0.6670444122012913  0.6647030330167758
  0.4841837082236848  0.9983693803400128  0.3186362597273609
  0.7552196162421589  0.4966876576398893  0.1679532519343376
  0.2624817867554916  0.8265980996815945  0.8373392988258860
  0.7205919602283277  0.8412590272965615  0.5074715977652775
 -0.0002727766048559  0.0013893275359599  0.6714006139556938
  0.7304022034101432  0.4989910861627878  0.8339454733390380
  0.2474729823214698  0.5060960753374875  0.1466899918548078
  0.0181994274785047  0.6769897727113391  0.3414553088008118
  0.5073998010596589  0.0056364847623341  0.0015365137216461
  0.7522800076651001  0.1726237917596107  0.4994341305431581
  0.4843608860757543  0.6688267732086276  0.3322198651414952
  0.4643038275320686  0.3356087676171508  0.3341321414444618
  0.0202208609494099  0.9898029148494356  0.3349414351047802
  0.7680567545944020  0.1831067192295068  0.1840233287432532
 
  0.00000000E+00  0.00000000E+00  0.00000000E+00
  0.00000000E+00  0.00000000E+00  0.00000000E+00
  0.00000000E+00  0.00000000E+00  0.00000000E+00
  0.00000000E+00  0.00000000E+00  0.00000000E+00
  0.00000000E+00  0.00000000E+00  0.00000000E+00
  0.00000000E+00  0.00000000E+00  0.00000000E+00
  0.00000000E+00  0.00000000E+00  0.00000000E+00
  0.00000000E+00  0.00000000E+00  0.00000000E+00
  0.00000000E+00  0.00000000E+00  0.00000000E+00
  0.00000000E+00  0.00000000E+00  0.00000000E+00
  0.00000000E+00  0.00000000E+00  0.00000000E+00
  0.00000000E+00  0.00000000E+00  0.00000000E+00
  0.00000000E+00  0.00000000E+00  0.00000000E+00
  0.00000000E+00  0.00000000E+00  0.00000000E+00
  0.00000000E+00  0.00000000E+00  0.00000000E+00
  0.00000000E+00  0.00000000E+00  0.00000000E+00
  0.00000000E+00  0.00000000E+00  0.00000000E+00
  0.00000000E+00  0.00000000E+00  0.00000000E+00
  0.00000000E+00  0.00000000E+00  0.00000000E+00
  0.00000000E+00  0.00000000E+00  0.00000000E+00
  0.00000000E+00  0.00000000E+00  0.00000000E+00
  0.00000000E+00  0.00000000E+00  0.00000000E+00
  0.00000000E+00  0.00000000E+00  0.00000000E+00
  0.00000000E+00  0.00000000E+00  0.00000000E+00
  0.00000000E+00  0.00000000E+00  0.00000000E+00
  0.00000000E+00  0.00000000E+00  0.00000000E+00
  0.00000000E+00  0.00000000E+00  0.00000000E+00
  0.00000000E+00  0.00000000E+00  0.00000000E+00
  0.00000000E+00  0.00000000E+00  0.00000000E+00
  0.00000000E+00  0.00000000E+00  0.00000000E+00
  0.00000000E+00  0.00000000E+00  0.00000000E+00
  0.00000000E+00  0.00000000E+00  0.00000000E+00
  0.00000000E+00  0.00000000E+00  0.00000000E+00
  0.00000000E+00  0.00000000E+00  0.00000000E+00
  0.00000000E+00  0.00000000E+00  0.00000000E+00
  0.00000000E+00  0.00000000E+00  0.00000000E+00
