generated by pypospack                  
   4.98831000000000     
     1.3639031298880611    0.0011971337361481   -0.0008961655007869
     0.0018206682372860    2.0425737601619511   -0.0011725082615425
    -0.0013178155354691   -0.0011396617451823    2.0424583983423195
   Ta   Nb   Zr   Hf
    11    11     5     9
Direct
  0.7546739755925530  0.8366979021937413  0.5038106855467550
  0.2361952191310548  0.4907827381482639  0.1775698310571405
  0.2460942647942909  0.5079644251372837  0.4979603110912266
  0.2450679491644480  0.5266717847429265  0.8262466347959617
  0.0079570899716683  0.6704590602477900  0.0010093894518812
  0.2279733559582392  0.8373534272919531  0.1755190175864625
  0.7545235696372076  0.5012390739978813  0.4926509224806459
  0.7729736834571048  0.8330311473802456  0.1726731181358540
  0.9960469030276391  0.9869178650181489  0.0107762243078932
  0.7521552070171764  0.1690798020927934  0.1784959849859398
  0.2435128604109242  0.8307183651090664  0.8249644108806514
  0.5029766946229711  0.9918058912662018  0.3263779593727512
  0.9946802363920760 -0.0020047406690065  0.3303549239444727
  0.2537565564702234  0.1610142085461112  0.4923434122554886
  0.0049399357775576  0.0018494187678025  0.6573648969441098
 -0.0003434154560692  0.6677098837681863  0.3344775426359659
 -0.0010110955556178  0.6622507476852226  0.6644951039567062
  0.4942376434845344  0.9934643975159804  0.6552602604450116
  0.5006024477611853  0.6631052340935327  0.6613632247424494
  0.0072623054732019  0.3338053716556760  0.3485555257365159
  0.4931660637027718  0.3399807643020307  0.3405411340871071
  0.7570081234019275  0.5226273082991346  0.8272312102089390
  0.2457256950126950  0.1434802952888427  0.8314799107467981
  0.9996193595842329  0.3416576411584168  0.9846729023147724
  0.5034787988429116  0.9927472683323205  0.0155556645543443
  0.4987007319168923  0.3423682774414168  0.6725047816199480
  0.4957988141371173  0.6656967438567967  0.0065445840290189
  0.7428256933123810  0.1621895225620859  0.4913973675529399
  0.7545056329734907  0.8339880849837040  0.8232895729980857
  0.5000853630355130  0.3419466851911330  0.9947785073288615
  0.2442619759543713  0.1725058195471826  0.1750576046442622
  0.0035849859373514  0.3386018846757014  0.6643354693916809
  0.2433200014465701  0.8327709806631476  0.5017364051285601
  0.7533435424003470  0.1467472732112555  0.8287883585124178
  0.5012514336614192  0.6683278370123742  0.3302608629318096
  0.7690463975476441  0.4904506094846475  0.1795542835965558
 
  0.00000000E+00  0.00000000E+00  0.00000000E+00
  0.00000000E+00  0.00000000E+00  0.00000000E+00
  0.00000000E+00  0.00000000E+00  0.00000000E+00
  0.00000000E+00  0.00000000E+00  0.00000000E+00
  0.00000000E+00  0.00000000E+00  0.00000000E+00
  0.00000000E+00  0.00000000E+00  0.00000000E+00
  0.00000000E+00  0.00000000E+00  0.00000000E+00
  0.00000000E+00  0.00000000E+00  0.00000000E+00
  0.00000000E+00  0.00000000E+00  0.00000000E+00
  0.00000000E+00  0.00000000E+00  0.00000000E+00
  0.00000000E+00  0.00000000E+00  0.00000000E+00
  0.00000000E+00  0.00000000E+00  0.00000000E+00
  0.00000000E+00  0.00000000E+00  0.00000000E+00
  0.00000000E+00  0.00000000E+00  0.00000000E+00
  0.00000000E+00  0.00000000E+00  0.00000000E+00
  0.00000000E+00  0.00000000E+00  0.00000000E+00
  0.00000000E+00  0.00000000E+00  0.00000000E+00
  0.00000000E+00  0.00000000E+00  0.00000000E+00
  0.00000000E+00  0.00000000E+00  0.00000000E+00
  0.00000000E+00  0.00000000E+00  0.00000000E+00
  0.00000000E+00  0.00000000E+00  0.00000000E+00
  0.00000000E+00  0.00000000E+00  0.00000000E+00
  0.00000000E+00  0.00000000E+00  0.00000000E+00
  0.00000000E+00  0.00000000E+00  0.00000000E+00
  0.00000000E+00  0.00000000E+00  0.00000000E+00
  0.00000000E+00  0.00000000E+00  0.00000000E+00
  0.00000000E+00  0.00000000E+00  0.00000000E+00
  0.00000000E+00  0.00000000E+00  0.00000000E+00
  0.00000000E+00  0.00000000E+00  0.00000000E+00
  0.00000000E+00  0.00000000E+00  0.00000000E+00
  0.00000000E+00  0.00000000E+00  0.00000000E+00
  0.00000000E+00  0.00000000E+00  0.00000000E+00
  0.00000000E+00  0.00000000E+00  0.00000000E+00
  0.00000000E+00  0.00000000E+00  0.00000000E+00
  0.00000000E+00  0.00000000E+00  0.00000000E+00
  0.00000000E+00  0.00000000E+00  0.00000000E+00
