generated by pypospack
   4.98831
  1.370300   0.002440   0.000234
  0.003689   2.045766  -0.000987
  0.000369  -0.000957   2.043173
 Ta Nb Zr Hf
 11 11 5 9
Direct
  0.754090   0.835565   0.503543
  0.235224   0.489497   0.174658
  0.247829   0.506304   0.498556
  0.244491   0.520332   0.828858
  0.007819   0.670662  -0.000676
  0.225143   0.836996   0.173283
  0.755431   0.502308   0.491406
  0.776008   0.832395   0.174168
  0.993660   0.987771   0.008873
  0.753619   0.166920   0.178987
  0.240253   0.830593   0.825728
  0.500313   0.992341   0.321094
  0.999432   0.000076   0.327702
  0.255227   0.161563   0.491303
  0.017827   0.011552   0.663168
  0.009572   0.664932   0.332655
  0.005014   0.658129   0.668383
  0.480618  -0.001088   0.659833
  0.495367   0.658279   0.664959
  0.009500   0.332443   0.349179
  0.493446   0.338837   0.339908
  0.756301   0.524288   0.825348
  0.250158   0.152592   0.839293
 -0.013286   0.341742   0.985666
  0.505412   0.989865   0.016321
  0.502079   0.341958   0.669416
  0.495735   0.666286   0.004962
  0.743259   0.159757   0.490793
  0.756289   0.834773   0.821970
  0.506644   0.343948   0.996506
  0.243476   0.173028   0.171106
  0.000612   0.337002   0.662983
  0.243564   0.833008   0.502558
  0.746396   0.145635   0.827614
  0.493115   0.666288   0.327214
  0.770361   0.493426   0.182680
