generated by pypospack
   4.98831
  1.376597   0.001164   0.000429
  0.001788   2.063204   0.005452
  0.000693   0.005360   2.060022
 Ta Hf Zr Nb
 10 9 8 9
Direct
  0.245716   0.182137   0.177090
  0.018635   0.327152   0.340912
  0.008164   0.337158   0.665518
  0.238688   0.483306   0.829860
  0.250503   0.857491   0.519037
  0.480954   0.324621   0.333402
  0.762450   0.491035   0.815071
  0.752100   0.852503   0.518105
  0.245365   0.843151   0.833871
  0.235022   0.816637   0.139967
  0.255372   0.165614   0.825115
  0.244910   0.499501   0.166203
  0.010202   0.678510   0.351100
  0.512416   0.009173   0.010739
  0.746185   0.167681   0.505792
  0.509747   0.326204   0.001119
  0.743147   0.486719   0.498229
  0.494423   0.684839   0.346396
  0.491102   0.665579   0.663769
  0.981485   0.011757   0.007295
  0.001632   0.998354   0.330369
  0.986542   0.325444   0.998240
  0.012580   0.663702   0.659783
  0.499235   0.997514   0.327307
  0.753107   0.505637   0.175374
  0.502560   0.655262   0.978722
  0.755914   0.834704   0.828199
  0.003284   0.001343   0.669441
  0.260769   0.485971   0.496037
  0.996385   0.656359   0.980660
  0.752045   0.183909   0.195372
  0.497995   0.996397   0.669369
  0.741759   0.167848   0.811583
  0.491770   0.339706   0.668323
  0.764595   0.811350   0.156319
  0.253233   0.165734   0.506305
