generated by pypospack
   4.98831
  1.411523   0.001775  -0.003775
  0.002725   2.051672   0.000453
 -0.005625   0.000437   2.080761
 Zr Ta Nb Hf
 13 8 5 10
Direct
  0.515178   0.324841   0.350638
  0.988609   0.334515   0.670707
  0.512063   0.014091   0.653366
  0.275276   0.481865   0.149801
  0.000945   0.345558   0.331821
  0.477453   0.673183   0.330317
  0.214292   0.151974   0.493936
  0.007469   0.671877   0.001827
  0.759617   0.525925   0.507012
  0.761702   0.826101   0.506765
  0.259790   0.492710   0.835898
  0.258272   0.164690   0.161036
  0.236264   0.831658   0.504259
  0.732374   0.830942   0.155147
  0.975713   0.989930   0.309336
  0.257179   0.851658   0.165171
  0.793344   0.153804   0.487792
  0.481618   0.677361   0.001222
  0.484534   0.658648   0.672784
  0.244970   0.513610   0.520602
  0.012990   0.666155   0.685699
  0.745135   0.164381   0.164736
  0.721425   0.161148   0.841180
  0.266453   0.829972   0.834287
  0.540170   0.326386   0.993427
  0.503231   0.995063   0.007481
  0.728427   0.508684   0.160163
  0.276306   0.170862   0.844360
  0.990963   0.999233   0.998926
  0.992589   0.998434   0.693241
  0.017032   0.669243   0.316348
  0.520960   0.000050   0.331076
  0.514370   0.334135   0.659273
  0.970946   0.326117   0.992106
  0.722813   0.823554   0.834847
  0.739514   0.511646   0.833413
