generated by pypospack
   4.98831
  1.407012   0.005389  -0.008936
  0.007904   2.060529  -0.002826
 -0.013299  -0.002886   2.059960
 Zr Hf Ta Nb
 13 9 10 4
Direct
  0.008087   0.341968   0.316640
  0.498832   0.667531   0.329009
  0.712946   0.153758   0.844581
  0.010573   0.999744   0.000092
  0.234439   0.166286   0.504885
  0.277332   0.175592   0.831215
  0.993490   0.668821   0.001210
  0.503798   0.335347   0.337235
  0.791291   0.514919   0.505965
  0.501979   0.672762   0.664607
  0.766774   0.838201   0.498720
  0.254180   0.498392   0.833452
  0.255041   0.169957   0.167020
  0.967515   0.318395   0.681372
  0.745487   0.155772   0.173735
  0.000364   0.000331   0.678260
  0.225404   0.504161   0.515327
  0.007957   0.664537   0.312477
  0.478308   0.977900   0.010078
  0.482522   0.996499   0.334056
  0.531805   0.337199   0.649467
  0.996531   0.333654   0.005074
  0.738766   0.835280   0.829568
  0.757106   0.845499   0.170990
  0.015669   0.992819   0.327918
  0.279836   0.502350   0.146401
  0.241041   0.828978   0.174191
  0.234994   0.834584   0.500733
  0.491813   0.984772   0.661476
  0.726411   0.499578   0.149069
  0.768091   0.151705   0.487980
  0.503898   0.673511   0.998091
  0.001031   0.682916   0.684438
  0.253483   0.824705   0.824248
  0.503353   0.343895   0.006088
  0.739856   0.507687   0.844344
