generated by pypospack                  
   4.98831000000000     
     1.3790109159881456   -0.0017740070590590    0.0032630762515952
    -0.0025503022328483    2.0341655094546947    0.0017310374990858
     0.0048752013045398    0.0017604310588424    2.0610433651231541
   Ta   Nb   Zr   Hf
    11     9     8     8
Direct
  0.7697309440099017  0.8392293010672530  0.4989570026412824
  0.2400776522306070  0.4917855901794391  0.1744751983554457
  0.2263622884470839  0.5226353110747681  0.8353557969047882
  0.0047291369872363  0.6675172599949820  0.0112493812505264
  0.2296266312862326  0.8380239788292054  0.1747458767299863
  0.7601732677746819  0.4959543958403878  0.4929863682294223
  0.7721335745408454  0.8349165234431440  0.1727861005260326
  0.9849232582439403 -0.0005005550945828  0.0160396807915333
  0.7544745508892375  0.1684688291630652  0.1826068597830181
  0.7731952470418495  0.5208962170871272  0.8328858737016706
  0.9978844697922562  0.6661589180821534  0.3311449057389649
  0.2376901659672360  0.5032925587709954  0.4934959949973077
  0.5044122089070797  0.9946111549533659  0.3248589411156664
  0.9958704834611629  0.9989687964271915  0.3291249144738930
  0.2531788279359778  0.1617613421302207  0.4902317429292758
  0.0019870618269479  0.0144103591483227  0.6526563256244491
 -0.0020285586259122  0.6572335088154573  0.6583353331715051
  0.5064518576985526  0.9786686791131957  0.6487176419869158
  0.0067766497422790  0.3381214213477314  0.3445884505848001
  0.4882334269497849  0.3384348740756821  0.3441661260444686
  0.2436716165981984  0.8343488889004720  0.8306510474106361
  0.7553370977350495  0.4875906988854594  0.1758880501224113
  0.5009438607927529  0.6676384307486367  0.3351256407599950
  0.2575196260205804  0.1422315317137451  0.8293027488431396
 -0.0006627923195666  0.3323487918186471  0.9890759104753523
  0.5139372355597043  0.9950567747439873  0.0218610404310145
  0.4930348941706232  0.3481115676206895  0.6738475962845497
  0.4964376573194813  0.6636336242375950  0.0037105492351701
  0.7418436596524042  0.1660733413365858  0.4928647660441478
  0.7675818096059338  0.8334557087753521  0.8268337397970967
  0.4966000086310645  0.3421622688542839  0.9901004903762147
  0.2434931100999492  0.1730757950245324  0.1768598547118705
  0.0054557660273925  0.3340613669995520  0.6654557078182598
  0.2340236795500817  0.8390218763732743  0.4961173174146425
  0.7392617616478937  0.1450866865745054  0.8218413219080923
  0.5056308638014715  0.6655141829435692  0.6610487027864597
 
  0.00000000E+00  0.00000000E+00  0.00000000E+00
  0.00000000E+00  0.00000000E+00  0.00000000E+00
  0.00000000E+00  0.00000000E+00  0.00000000E+00
  0.00000000E+00  0.00000000E+00  0.00000000E+00
  0.00000000E+00  0.00000000E+00  0.00000000E+00
  0.00000000E+00  0.00000000E+00  0.00000000E+00
  0.00000000E+00  0.00000000E+00  0.00000000E+00
  0.00000000E+00  0.00000000E+00  0.00000000E+00
  0.00000000E+00  0.00000000E+00  0.00000000E+00
  0.00000000E+00  0.00000000E+00  0.00000000E+00
  0.00000000E+00  0.00000000E+00  0.00000000E+00
  0.00000000E+00  0.00000000E+00  0.00000000E+00
  0.00000000E+00  0.00000000E+00  0.00000000E+00
  0.00000000E+00  0.00000000E+00  0.00000000E+00
  0.00000000E+00  0.00000000E+00  0.00000000E+00
  0.00000000E+00  0.00000000E+00  0.00000000E+00
  0.00000000E+00  0.00000000E+00  0.00000000E+00
  0.00000000E+00  0.00000000E+00  0.00000000E+00
  0.00000000E+00  0.00000000E+00  0.00000000E+00
  0.00000000E+00  0.00000000E+00  0.00000000E+00
  0.00000000E+00  0.00000000E+00  0.00000000E+00
  0.00000000E+00  0.00000000E+00  0.00000000E+00
  0.00000000E+00  0.00000000E+00  0.00000000E+00
  0.00000000E+00  0.00000000E+00  0.00000000E+00
  0.00000000E+00  0.00000000E+00  0.00000000E+00
  0.00000000E+00  0.00000000E+00  0.00000000E+00
  0.00000000E+00  0.00000000E+00  0.00000000E+00
  0.00000000E+00  0.00000000E+00  0.00000000E+00
  0.00000000E+00  0.00000000E+00  0.00000000E+00
  0.00000000E+00  0.00000000E+00  0.00000000E+00
  0.00000000E+00  0.00000000E+00  0.00000000E+00
  0.00000000E+00  0.00000000E+00  0.00000000E+00
  0.00000000E+00  0.00000000E+00  0.00000000E+00
  0.00000000E+00  0.00000000E+00  0.00000000E+00
  0.00000000E+00  0.00000000E+00  0.00000000E+00
  0.00000000E+00  0.00000000E+00  0.00000000E+00
