generated by pypospack
   4.98831
  1.409481   0.004106   0.014399
  0.006112   2.068022  -0.001096
  0.020929  -0.001199   2.066815
 Ta Nb Hf Zr
 10 5 9 12
Direct
  0.498270   0.676012   0.008990
  0.003364   0.676432   0.011575
  0.744729   0.829944   0.155627
  0.970419   0.994158   0.318879
  0.248874   0.837776   0.167932
  0.770719   0.154912   0.502357
  0.219035   0.504906   0.500720
  0.041307   0.676805   0.673546
  0.737868   0.512216   0.148524
  0.221262   0.836991   0.482153
  0.214464   0.158721   0.476314
  0.733106   0.160158   0.163311
  0.258854   0.826893   0.849755
  0.536640   0.337270   0.011334
  0.502433   0.986917   0.013309
  0.515756   0.993795   0.335868
  0.476598   0.997606   0.650345
 -0.000177   0.997787   0.000094
  0.025691   0.999055   0.682712
  0.994987   0.666854   0.316676
  0.489261   0.332210   0.643835
  0.977377   0.325245   0.001187
  0.752228   0.511189   0.835602
  0.464675   0.674210   0.653426
  0.726015   0.162425   0.829019
  0.511673   0.336495   0.340103
  0.019852   0.323901   0.675129
  0.261952   0.494841   0.154713
  0.970864   0.338873   0.324504
  0.495450   0.666691   0.336385
  0.782434   0.513333   0.523688
  0.774688   0.834491   0.513018
  0.262130   0.500361   0.844284
  0.257878   0.162608   0.167782
  0.747829   0.825750   0.833004
  0.291479   0.172175   0.854291
