generated by pypospack                  
   4.94975000000000     
     1.6506978783202149    0.0011734308699418    0.0016681354307221
     0.0011845930332406    1.6378643063954905   -0.0041348671425050
     0.0016917927889489   -0.0041664238095997    1.6235755280052266
   Pt   Au
    16    16
Direct
  0.2566029562557350  0.9972325770198746  0.2522643896639884
  0.9998181221241266  0.9967434104369074  0.5034956843720326
  0.9995193573725472  0.5017277083591429  0.9988048250465553
  0.2498545197620425  0.7481228789135094  0.9985133560715888
  0.9994603498191280  0.5026095082012492  0.5021443302057457
  0.2492190316738869  0.5067169645829610  0.7504503532368945
  0.0016761974691146  0.7483769995525394  0.7517197033668799
  0.7478268949120430  0.2528932975582053  0.0003322671871561
  0.5034664622377767  0.2509392332923713  0.2536158269489980
  0.5006742336858009  0.9999411483703002  0.4998441257463916
  0.7468671588452385  0.9997139935781920  0.7475694377087888
  0.5034516475928908  0.2496402491307297  0.7456103579583164
  0.7477610748243190  0.4957964494615772  0.2491820468733242
  0.4965103945595570  0.7501686616909591  0.2522469283420203
  0.4997717760073567  0.4997934685977847  0.4995636046143582
  0.4962824731597745  0.7490540517628923  0.7456529383467438
  0.9998908681716028  0.9994806587915595  0.9991755064384061
  0.2531708596581923  0.2513252828536396  0.9997486075022040
  0.0009421798195673  0.2498363686628427  0.2505328986249246
  0.2514517626750120  0.2505263029496114  0.5010786647274630
  0.2512857337074234  0.9989500939733079  0.7496185674236842
  0.9993109776433399  0.2512001780330880  0.7514446500859007
  0.2500897699551039  0.5003896295091766  0.2502668786189443
  0.0002150938922303  0.7493263389129129  0.2490096232610835
  0.2490412745085231  0.7503414798979336  0.4999045413391033
  0.5006661880850088  0.0000661211940878  0.9991008835269494
  0.7487482768335013  0.0005838752241522  0.2506700114891229
  0.7514798636727205  0.2499418491701058  0.5002396863153662
  0.4992193405097103  0.5002883144931592  0.9992264352663069
  0.7478504908929976  0.7488092694967075  0.9990033952325597
  0.7486562748561343  0.7488570895837345  0.5000578488029715
  0.7492203948175890  0.5006045467447968  0.7499116256552200
 
  0.00000000E+00  0.00000000E+00  0.00000000E+00
  0.00000000E+00  0.00000000E+00  0.00000000E+00
  0.00000000E+00  0.00000000E+00  0.00000000E+00
  0.00000000E+00  0.00000000E+00  0.00000000E+00
  0.00000000E+00  0.00000000E+00  0.00000000E+00
  0.00000000E+00  0.00000000E+00  0.00000000E+00
  0.00000000E+00  0.00000000E+00  0.00000000E+00
  0.00000000E+00  0.00000000E+00  0.00000000E+00
  0.00000000E+00  0.00000000E+00  0.00000000E+00
  0.00000000E+00  0.00000000E+00  0.00000000E+00
  0.00000000E+00  0.00000000E+00  0.00000000E+00
  0.00000000E+00  0.00000000E+00  0.00000000E+00
  0.00000000E+00  0.00000000E+00  0.00000000E+00
  0.00000000E+00  0.00000000E+00  0.00000000E+00
  0.00000000E+00  0.00000000E+00  0.00000000E+00
  0.00000000E+00  0.00000000E+00  0.00000000E+00
  0.00000000E+00  0.00000000E+00  0.00000000E+00
  0.00000000E+00  0.00000000E+00  0.00000000E+00
  0.00000000E+00  0.00000000E+00  0.00000000E+00
  0.00000000E+00  0.00000000E+00  0.00000000E+00
  0.00000000E+00  0.00000000E+00  0.00000000E+00
  0.00000000E+00  0.00000000E+00  0.00000000E+00
  0.00000000E+00  0.00000000E+00  0.00000000E+00
  0.00000000E+00  0.00000000E+00  0.00000000E+00
  0.00000000E+00  0.00000000E+00  0.00000000E+00
  0.00000000E+00  0.00000000E+00  0.00000000E+00
  0.00000000E+00  0.00000000E+00  0.00000000E+00
  0.00000000E+00  0.00000000E+00  0.00000000E+00
  0.00000000E+00  0.00000000E+00  0.00000000E+00
  0.00000000E+00  0.00000000E+00  0.00000000E+00
  0.00000000E+00  0.00000000E+00  0.00000000E+00
  0.00000000E+00  0.00000000E+00  0.00000000E+00
