generated by pypospack                  
   4.98831000000000     
     1.3867834682903450    0.0074137803522140    0.0008349448825440
     0.0109580408178154    2.0494811371459907    0.0011315410741309
     0.0013022320993688    0.0010840081179482    2.0590874661248559
   Hf   Zr   Nb   Ta
     9     9    10     8
Direct
  0.9963463104353431  0.3303274774571744  0.0068637081878142
  0.2568588838242193  0.4944042886749115  0.8340481086694329
  0.9708328231208352  0.6638010153580989  0.9920704099591978
  0.2387285348717472  0.8124367732016408  0.1716213375237867
  0.7629728525098547  0.1689153171138036  0.5004791805841191
  0.4771164164276535  0.9939232584821446  0.6725112539255530
  0.7464826070039816  0.1713954756892177  0.8196743627214415
  0.7661108488930691  0.8370664211338332  0.1875200923784592
  0.7701366247084674  0.8402602453314938  0.4979426782329442
  0.0156103886825108  0.0013892410202328  0.9939804035578136
  0.2320879109879310  0.1751413107622883  0.5006569592763898
  0.2584298245200276  0.5005929640422141  0.1671041948151049
  0.4917774712258173 -0.0008583710788091  0.9918120162713746
  0.7460757750205765  0.1619665002234423  0.1788025265207462
  0.4692248297421852  0.9914252891825547  0.3385800091849409
  0.7415239910534298  0.4853898606436323  0.8183354184773096
  0.5270035998010320  0.6752382673299354  0.9958854811498333
  0.4946003989753682  0.6740635642690714  0.6586611156945841
  0.9940683901944638  0.3410680896365607  0.3251532476538725
  0.2397286122207449  0.5014062583852177  0.4974490199436781
  0.0085458196658020  0.3410376109101613  0.6634989047677444
  0.9965213691776881  0.6544106870415456  0.3440016008547930
  0.2268997848737705  0.8270217927482846  0.4994268265479583
  0.2348957534930166  0.8183311641535053  0.8321161799434362
  0.4987821972676488  0.3220881201893464  0.0088183683992779
  0.7407535062235341  0.4953595951561895  0.1817162372295223
  0.7685198548735129  0.8464002367358141  0.8130242696643188
  0.0026266073546400  0.6711098324667368  0.6673081535051464
  0.2596899888473275  0.1801334181620557  0.1728070353009030
  0.0350969908395721  0.0033816761078308  0.3309064984556304
  0.0255683338341955  0.9950667440357008  0.6764264074972862
  0.2575485805400842  0.1856814686376082  0.8253501145438951
  0.5023948114319281  0.3436763050281724  0.3425148431592770
  0.7558744616171145  0.4997181517885652  0.4999919896378083
  0.4876246645216422  0.3375097595736558  0.6451400408020873
  0.5029451812192605  0.6597211904061713  0.3478020049625102
 
  0.00000000E+00  0.00000000E+00  0.00000000E+00
  0.00000000E+00  0.00000000E+00  0.00000000E+00
  0.00000000E+00  0.00000000E+00  0.00000000E+00
  0.00000000E+00  0.00000000E+00  0.00000000E+00
  0.00000000E+00  0.00000000E+00  0.00000000E+00
  0.00000000E+00  0.00000000E+00  0.00000000E+00
  0.00000000E+00  0.00000000E+00  0.00000000E+00
  0.00000000E+00  0.00000000E+00  0.00000000E+00
  0.00000000E+00  0.00000000E+00  0.00000000E+00
  0.00000000E+00  0.00000000E+00  0.00000000E+00
  0.00000000E+00  0.00000000E+00  0.00000000E+00
  0.00000000E+00  0.00000000E+00  0.00000000E+00
  0.00000000E+00  0.00000000E+00  0.00000000E+00
  0.00000000E+00  0.00000000E+00  0.00000000E+00
  0.00000000E+00  0.00000000E+00  0.00000000E+00
  0.00000000E+00  0.00000000E+00  0.00000000E+00
  0.00000000E+00  0.00000000E+00  0.00000000E+00
  0.00000000E+00  0.00000000E+00  0.00000000E+00
  0.00000000E+00  0.00000000E+00  0.00000000E+00
  0.00000000E+00  0.00000000E+00  0.00000000E+00
  0.00000000E+00  0.00000000E+00  0.00000000E+00
  0.00000000E+00  0.00000000E+00  0.00000000E+00
  0.00000000E+00  0.00000000E+00  0.00000000E+00
  0.00000000E+00  0.00000000E+00  0.00000000E+00
  0.00000000E+00  0.00000000E+00  0.00000000E+00
  0.00000000E+00  0.00000000E+00  0.00000000E+00
  0.00000000E+00  0.00000000E+00  0.00000000E+00
  0.00000000E+00  0.00000000E+00  0.00000000E+00
  0.00000000E+00  0.00000000E+00  0.00000000E+00
  0.00000000E+00  0.00000000E+00  0.00000000E+00
  0.00000000E+00  0.00000000E+00  0.00000000E+00
  0.00000000E+00  0.00000000E+00  0.00000000E+00
  0.00000000E+00  0.00000000E+00  0.00000000E+00
  0.00000000E+00  0.00000000E+00  0.00000000E+00
  0.00000000E+00  0.00000000E+00  0.00000000E+00
  0.00000000E+00  0.00000000E+00  0.00000000E+00
