generated by pypospack                  
   4.98831000000000     
     1.3764355050813075    0.0010616400348154   -0.0000589796039729
     0.0016350085164418    2.0608671233171254    0.0059557740154470
    -0.0000389293157097    0.0058522385397717    2.0621531527673040
   Ta   Zr   Nb   Hf
     9     8     9    10
Direct
  0.2458373436423528  0.1827249738834011  0.1804054104041969
  0.2534884146124347  0.1653075848016716  0.5063500095468366
  0.0163614350472754  0.3273024795089931  0.3408481873749744
  0.0063207276025720  0.3375116245789937  0.6657284085870452
  0.2391431896369964  0.4827886634132117  0.8297260504602572
  0.2511059525143214  0.8608560134477659  0.5148563359922395
  0.4832405684511579  0.3249910591337513  0.3327281193138989
  0.7612333321439296  0.4923976215611034  0.8167153585644911
  0.7522686872152792  0.8508827157447564  0.5192803001375046
  0.9850234743022708  0.0119279019482802  0.0062471984385580
  0.9992282975169122  0.9989029798638490  0.3300698869986742
  0.9877757327073958  0.3248318653231133  0.9985956531641643
  0.0140036562599075  0.6637697584832237  0.6596080996813627
  0.5014180942092684  0.9977878290817290  0.3267286639726443
  0.7534024623516561  0.5061440497692666  0.1745219263102598
  0.5003747469095896  0.6571656668783855  0.9792028124601168
  0.7552928704683767  0.8345157223325430  0.8281949224845758
  0.0039838026912958  0.0003748707707716  0.6696862306305507
  0.2614240316217821  0.4832988671634120  0.4963128651551529
  0.9964881042574699  0.6557512101966481  0.9803818835088639
  0.2454684025793750  0.8417713344044391  0.8340988797538559
  0.7521348815140688  0.1827732035476954  0.1934791037442688
  0.4984098767333399  0.9958901638205016  0.6692645807871755
  0.7417038408463220  0.1672046782445657  0.8131410830442535
  0.4937230450470860  0.3402102944585814  0.6686166800916791
  0.7662588203877853  0.8117391168550242  0.1546078868883044
  0.2565579226721718  0.1685489371339095  0.8211575225858051
  0.2449427750957455  0.4998004801085084  0.1660600014837718
  0.2321253770618729  0.8154586986325709  0.1437417314534057
  0.0102203475961668  0.6770814732585695  0.3524838273787746
  0.5094920686130333  0.0087934732282050  0.0104314971364866
  0.7459614448489140  0.1679775897329154  0.5067279362345095
  0.5087473768363840  0.3254677210023715  0.0020149966691161
  0.7424699111519558  0.4877684995921897  0.4989324758713924
  0.4953312799798235  0.6844357933433409  0.3460488219816856
  0.4890367048737189  0.6658470847517507  0.6630006517091362
 
  0.00000000E+00  0.00000000E+00  0.00000000E+00
  0.00000000E+00  0.00000000E+00  0.00000000E+00
  0.00000000E+00  0.00000000E+00  0.00000000E+00
  0.00000000E+00  0.00000000E+00  0.00000000E+00
  0.00000000E+00  0.00000000E+00  0.00000000E+00
  0.00000000E+00  0.00000000E+00  0.00000000E+00
  0.00000000E+00  0.00000000E+00  0.00000000E+00
  0.00000000E+00  0.00000000E+00  0.00000000E+00
  0.00000000E+00  0.00000000E+00  0.00000000E+00
  0.00000000E+00  0.00000000E+00  0.00000000E+00
  0.00000000E+00  0.00000000E+00  0.00000000E+00
  0.00000000E+00  0.00000000E+00  0.00000000E+00
  0.00000000E+00  0.00000000E+00  0.00000000E+00
  0.00000000E+00  0.00000000E+00  0.00000000E+00
  0.00000000E+00  0.00000000E+00  0.00000000E+00
  0.00000000E+00  0.00000000E+00  0.00000000E+00
  0.00000000E+00  0.00000000E+00  0.00000000E+00
  0.00000000E+00  0.00000000E+00  0.00000000E+00
  0.00000000E+00  0.00000000E+00  0.00000000E+00
  0.00000000E+00  0.00000000E+00  0.00000000E+00
  0.00000000E+00  0.00000000E+00  0.00000000E+00
  0.00000000E+00  0.00000000E+00  0.00000000E+00
  0.00000000E+00  0.00000000E+00  0.00000000E+00
  0.00000000E+00  0.00000000E+00  0.00000000E+00
  0.00000000E+00  0.00000000E+00  0.00000000E+00
  0.00000000E+00  0.00000000E+00  0.00000000E+00
  0.00000000E+00  0.00000000E+00  0.00000000E+00
  0.00000000E+00  0.00000000E+00  0.00000000E+00
  0.00000000E+00  0.00000000E+00  0.00000000E+00
  0.00000000E+00  0.00000000E+00  0.00000000E+00
  0.00000000E+00  0.00000000E+00  0.00000000E+00
  0.00000000E+00  0.00000000E+00  0.00000000E+00
  0.00000000E+00  0.00000000E+00  0.00000000E+00
  0.00000000E+00  0.00000000E+00  0.00000000E+00
  0.00000000E+00  0.00000000E+00  0.00000000E+00
  0.00000000E+00  0.00000000E+00  0.00000000E+00
