generated by pypospack
   4.98831
  1.385712   0.007202   0.003998
  0.010657   2.042093   0.003658
  0.005981   0.003585   2.068459
 Ta Zr Nb Hf
 8 9 9 10
Direct
  0.252107   0.179935   0.179503
  0.019062   0.994588   0.335625
  0.017672   0.984626   0.668356
  0.245249   0.182274   0.819220
  0.499217   0.343499   0.339640
  0.750376   0.494007   0.496452
  0.484281   0.328604   0.649846
  0.508506   0.659232   0.348090
  0.018384   0.004583   0.997485
  0.227192   0.172586   0.500350
  0.257052   0.503570   0.167413
  0.489700   0.005361   0.993802
  0.747696   0.168360   0.178894
  0.484727   0.994960   0.342752
  0.725610   0.477128   0.824416
  0.532122   0.677208   0.993507
  0.502106   0.676282   0.658086
  0.994455   0.343304   0.325439
  0.244779   0.497079   0.496085
  0.006545   0.348856   0.664865
  0.997371   0.661116   0.349185
  0.237622   0.828277   0.492980
  0.246495   0.825554   0.838576
  0.490584   0.316974   0.010119
  0.742515   0.496641   0.180386
  0.762923   0.860167   0.821854
  0.999608   0.331031   0.006917
  0.265550   0.493667   0.836498
  0.974159   0.665136   0.986184
  0.245643   0.815730   0.172683
  0.995361   0.669206   0.665818
  0.765119   0.172672   0.500437
  0.484862   0.996464   0.664421
  0.755036   0.166854   0.819503
  0.765326   0.831405   0.187051
  0.764991   0.833065   0.487562
