generated by pypospack
   4.98831
  1.400356   0.004225  -0.000336
  0.006205   2.048606   0.003627
 -0.000506   0.003484   2.053720
 Zr Ta Nb Hf
 11 6 11 8
Direct
  0.258237   0.168038   0.179229
  0.985911   0.005698   0.008698
  0.763603   0.163392   0.501906
  0.761266   0.171647   0.821095
  0.515045   0.998502   0.995926
  0.726189   0.177589   0.176512
  0.740895   0.490394   0.829063
  0.488616   0.662821   0.652755
  0.481393   0.331690   0.660193
  0.765367   0.838444   0.813583
  0.235229   0.495438   0.474609
  0.729604   0.496559   0.176087
  0.532056   0.667600   0.010761
  0.042641   0.005712   0.662481
  0.516633   0.669219   0.339104
  0.764491   0.497743   0.489430
  0.981678   0.668529   0.326298
  0.004514   0.989876   0.332076
  0.491001   0.989601   0.346192
  0.740436   0.832132   0.185485
  0.234444   0.168936   0.489516
  0.506436   0.339025   0.347846
  0.265055   0.502673   0.848044
  0.984364   0.341330   0.323700
  0.018682   0.338415   0.670243
  0.242174   0.834268   0.484492
  0.478974   0.335105   0.988858
  0.238341   0.172326   0.832454
  0.264202   0.505102   0.170545
  0.006513   0.336456   0.002754
  0.969581   0.661795   0.011297
  0.258081   0.826302   0.169071
  0.467787   0.003060   0.661351
  0.763786   0.839264   0.503723
  0.025575   0.653172   0.663730
  0.251205   0.822150   0.850886
