generated by pypospack
   4.98831
  1.375415  -0.000909   0.003159
 -0.001270   2.034516   0.002585
  0.004723   0.002632   2.051186
 Ta Nb Zr Hf
 11 9 8 8
Direct
  0.768096   0.839229   0.500676
  0.240585   0.492123   0.173793
  0.226002   0.526600   0.835841
  0.007332   0.672608   0.007497
  0.230556   0.838958   0.175655
  0.760251   0.496123   0.492527
  0.770263   0.837209   0.171608
  0.995486   0.995981   0.011918
  0.753619   0.167197   0.179656
  0.773157   0.518284   0.834720
  0.997098   0.666469   0.331514
  0.236892   0.503320   0.492902
  0.504687   0.995492   0.325044
  0.994671   0.999180   0.328497
  0.253904   0.161418   0.490783
  0.004682   0.006964   0.657180
  0.000451   0.662090   0.662492
  0.501834   0.975728   0.657543
  0.004234   0.338140   0.344099
  0.490890   0.337257   0.342968
  0.238647   0.832211   0.828061
  0.754358   0.489346   0.173271
  0.500824   0.667625   0.336407
  0.258726   0.138834   0.826078
  0.004007   0.331426   0.989081
  0.504716   0.992217   0.014612
  0.494001   0.348819   0.673182
  0.493916   0.667832   0.002542
  0.741838   0.163923   0.494480
  0.767468   0.834233   0.828211
  0.495381   0.342162   0.989130
  0.244959   0.173243   0.177909
  0.005928   0.334689   0.664487
  0.233770   0.838851   0.498290
  0.744354   0.147564   0.823874
  0.502410   0.666655   0.663465
