generated by pypospack                  
   4.98831000000000     
     1.3797234722750553   -0.0005152100025824    0.0041467816643463
    -0.0006986400165223    2.0433529460626794   -0.0050067799546397
     0.0059218062701457   -0.0051856567181010    2.0344144919363281
   Nb   Ta   Zr   Hf
    12     9     7     8
Direct
  0.2575447211857272  0.1693833720069827  0.1758000172631187
  0.9880015280114482  0.6623177818858309  0.6633667330526698
  0.5313065029488684  0.6595696580144893  0.0079178067572797
  0.0031197583597054  0.9873230044496384  0.3239940934373765
  0.4962339263383684  0.9911417635235549  0.3361398243078451
  0.7364014406799929  0.8353834560470712  0.1809684828043601
  0.4982802711424154  0.3420907999383199  0.3300275871519076
  0.9984174624548559  0.3451374624752168  0.3127730613671690
  0.9957824578927305  0.3369347677265910  0.6834031873152613
  0.2428131217223614  0.8295158328561664  0.4920665919914102
  0.4887187947238640  0.3308916203650100 -0.0005740700612496
  0.2486820529396470  0.1733429066430768  0.8329140863191414
  0.2650868112328498  0.5038435370245742  0.1691786777219445
  0.7455030196794062  0.5011781935265492  0.8299438439428940
  0.7309548069267634  0.4943428972487893  0.1772246045592956
  0.0355107230846667  0.9980480616099903  0.6673401824115662
  0.5046798102463912  0.6657198900995868  0.3421984249932337
  0.7617872780807123  0.5054802795317407  0.4966349237276549
  0.9963206977715549  0.6655221795918045  0.3271057132187492
  0.5182869593059702  0.6566138039383300  0.6552071389818911
  0.4744652077558333  0.0123242337257615  0.0005871142903647
  0.0180761431672565  0.0053197931101084  0.0051358993078088
  0.7670579366783032  0.1647281390553584  0.4941046109017682
  0.7480081174216634  0.1628654996521492  0.8322043650252281
  0.7366675137823877  0.1671158789140409  0.1707414182407324
  0.5051354519211757  0.3379151555044924  0.6635824066402736
  0.7481834938811005  0.8366628255395222  0.8266177630549368
  0.2373910623393361  0.4971030269099889  0.4988954885617226
  0.2567590690702593  0.5125629321860284  0.8370697336402001
  0.2313454256644132  0.1723234926343707  0.4848182789173738
  0.0043346294083703  0.3372191259193033  0.0034281323491703
  0.9717541883024226  0.6602590049832294  0.0171401593579190
  0.2660211165949142  0.8251044879414818  0.1654528734973363
  0.4690697118092158  0.0022795580388421  0.6586184235702407
  0.7612349956389701  0.8335488333188678  0.5006196178026190
  0.2610507918360768  0.8188917440631371  0.8373488035788044
 
  0.00000000E+00  0.00000000E+00  0.00000000E+00
  0.00000000E+00  0.00000000E+00  0.00000000E+00
  0.00000000E+00  0.00000000E+00  0.00000000E+00
  0.00000000E+00  0.00000000E+00  0.00000000E+00
  0.00000000E+00  0.00000000E+00  0.00000000E+00
  0.00000000E+00  0.00000000E+00  0.00000000E+00
  0.00000000E+00  0.00000000E+00  0.00000000E+00
  0.00000000E+00  0.00000000E+00  0.00000000E+00
  0.00000000E+00  0.00000000E+00  0.00000000E+00
  0.00000000E+00  0.00000000E+00  0.00000000E+00
  0.00000000E+00  0.00000000E+00  0.00000000E+00
  0.00000000E+00  0.00000000E+00  0.00000000E+00
  0.00000000E+00  0.00000000E+00  0.00000000E+00
  0.00000000E+00  0.00000000E+00  0.00000000E+00
  0.00000000E+00  0.00000000E+00  0.00000000E+00
  0.00000000E+00  0.00000000E+00  0.00000000E+00
  0.00000000E+00  0.00000000E+00  0.00000000E+00
  0.00000000E+00  0.00000000E+00  0.00000000E+00
  0.00000000E+00  0.00000000E+00  0.00000000E+00
  0.00000000E+00  0.00000000E+00  0.00000000E+00
  0.00000000E+00  0.00000000E+00  0.00000000E+00
  0.00000000E+00  0.00000000E+00  0.00000000E+00
  0.00000000E+00  0.00000000E+00  0.00000000E+00
  0.00000000E+00  0.00000000E+00  0.00000000E+00
  0.00000000E+00  0.00000000E+00  0.00000000E+00
  0.00000000E+00  0.00000000E+00  0.00000000E+00
  0.00000000E+00  0.00000000E+00  0.00000000E+00
  0.00000000E+00  0.00000000E+00  0.00000000E+00
  0.00000000E+00  0.00000000E+00  0.00000000E+00
  0.00000000E+00  0.00000000E+00  0.00000000E+00
  0.00000000E+00  0.00000000E+00  0.00000000E+00
  0.00000000E+00  0.00000000E+00  0.00000000E+00
  0.00000000E+00  0.00000000E+00  0.00000000E+00
  0.00000000E+00  0.00000000E+00  0.00000000E+00
  0.00000000E+00  0.00000000E+00  0.00000000E+00
  0.00000000E+00  0.00000000E+00  0.00000000E+00
