generated by pypospack                  
   4.98831000000000     
     1.3834029735788052    0.0003740531267856    0.0003502914660404
     0.0006407333725716    2.0371440012717330   -0.0011655281862373
     0.0005260728481230   -0.0012020497919416    2.0507508049378318
   Ta   Zr   Hf   Nb
    12     7     9     8
Direct
  0.7648015922694019  0.8425061350249268  0.5020031871890221
  0.2387867373787499  0.4945782846007625  0.1746537085953310
  0.9991110589428419  0.6645346396587187  0.0078000381212297
  0.2236753503933223  0.8351095711582152  0.1763496496947696
  0.7581977677213502  0.4936036890927420  0.4925750487378813
  0.7749389829711198  0.8342431293845001  0.1695494708435676
  0.0152991691922675  0.9951797665273329  0.0090645420331322
  0.7649733375955293  0.5161740731311569  0.8338857641909598
  0.9936210654226064  0.6657056864098768  0.3329798678727604
  0.2587186312007604  0.1589000520205101  0.4940320123500562
  0.2523180485783690  0.1455207918726481  0.8270890535190393
  0.4984280346361943  0.9995100293703152  0.6610108507046618
  0.7519030451040992  0.1662365522312573  0.1708391324874356
  0.2385661720924205  0.8338516739691848  0.8244133867823683
  0.7545230359201821  0.4887694004757814  0.1715169262152758
  0.5013664259582973  0.6696208813202693  0.3348838475793625
  0.0205088417743475  0.3366892534041017  0.9839594282268722
  0.4945296984426821  0.3380285593131296  0.6726701844515559
  0.4967625548800885  0.6661838654851210  0.0028226506443939
  0.4900739079341187  0.9879706943949251  0.0121496492361560
  0.7416915500985658  0.1650675795399743  0.4917668604436940
  0.7647193647614925  0.8343099197626652  0.8279287620659760
  0.4818167542215226  0.3420814301100452  0.9831307499059834
  0.2525947938910391  0.1706844208598594  0.1806838975843928
  0.0072646769251929  0.3320458187838629  0.6662379659060563
  0.2337437349937149  0.8410516542460174  0.5010061799689310
  0.7541539782992325  0.1507455596881390  0.8372721136764693
  0.5086537551409689  0.6643796327983670  0.6591377570267603
  0.2392871219805159  0.5031729255928249  0.4933203625480408
  0.5038700223369843  0.9844217301950651  0.3285289382316794
  0.9958017152158536  0.9937200193878029  0.3307574897384501
  0.0068936323880123  0.0182097473456790  0.6612237105045332
  0.9899870764025352  0.6557158947296327  0.6589860510821819
  0.0145982635440974  0.3418763501927306  0.3480169988854540
  0.4834835601618299  0.3456628187490235  0.3475368424865915
  0.2303295412296892  0.5239407691728206  0.8302119204689806
 
  0.00000000E+00  0.00000000E+00  0.00000000E+00
  0.00000000E+00  0.00000000E+00  0.00000000E+00
  0.00000000E+00  0.00000000E+00  0.00000000E+00
  0.00000000E+00  0.00000000E+00  0.00000000E+00
  0.00000000E+00  0.00000000E+00  0.00000000E+00
  0.00000000E+00  0.00000000E+00  0.00000000E+00
  0.00000000E+00  0.00000000E+00  0.00000000E+00
  0.00000000E+00  0.00000000E+00  0.00000000E+00
  0.00000000E+00  0.00000000E+00  0.00000000E+00
  0.00000000E+00  0.00000000E+00  0.00000000E+00
  0.00000000E+00  0.00000000E+00  0.00000000E+00
  0.00000000E+00  0.00000000E+00  0.00000000E+00
  0.00000000E+00  0.00000000E+00  0.00000000E+00
  0.00000000E+00  0.00000000E+00  0.00000000E+00
  0.00000000E+00  0.00000000E+00  0.00000000E+00
  0.00000000E+00  0.00000000E+00  0.00000000E+00
  0.00000000E+00  0.00000000E+00  0.00000000E+00
  0.00000000E+00  0.00000000E+00  0.00000000E+00
  0.00000000E+00  0.00000000E+00  0.00000000E+00
  0.00000000E+00  0.00000000E+00  0.00000000E+00
  0.00000000E+00  0.00000000E+00  0.00000000E+00
  0.00000000E+00  0.00000000E+00  0.00000000E+00
  0.00000000E+00  0.00000000E+00  0.00000000E+00
  0.00000000E+00  0.00000000E+00  0.00000000E+00
  0.00000000E+00  0.00000000E+00  0.00000000E+00
  0.00000000E+00  0.00000000E+00  0.00000000E+00
  0.00000000E+00  0.00000000E+00  0.00000000E+00
  0.00000000E+00  0.00000000E+00  0.00000000E+00
  0.00000000E+00  0.00000000E+00  0.00000000E+00
  0.00000000E+00  0.00000000E+00  0.00000000E+00
  0.00000000E+00  0.00000000E+00  0.00000000E+00
  0.00000000E+00  0.00000000E+00  0.00000000E+00
  0.00000000E+00  0.00000000E+00  0.00000000E+00
  0.00000000E+00  0.00000000E+00  0.00000000E+00
  0.00000000E+00  0.00000000E+00  0.00000000E+00
  0.00000000E+00  0.00000000E+00  0.00000000E+00
