generated by pypospack                  
   4.98831000000000     
     1.4119459505496386    0.0021340557232585    0.0022204274674149
     0.0032055135881088    2.0574578034708826    0.0029835438781628
     0.0031437431748353    0.0029426578791175    2.0612572308908166
   Ta   Hf   Nb   Zr
    10     9     5    12
Direct
  0.7366870045051117  0.8351173689222202  0.1601237516951928
  0.9847228463395351  0.9857500947641670  0.3161398314734699
  0.2611106553770552  0.8464036047159724  0.1650193349308858
  0.7839342149894880  0.1536945865785510  0.4877520370986151
  0.4919224514950770  0.6764903618251017  0.0082489774485393
  0.4642068387934870  0.6781791957489259  0.6606883615682464
  0.2421353776768100  0.5129299655318432  0.5136558554164772
  0.0326954156098267  0.6797356435642300  0.6717561364466192
  0.7267120433613632  0.5042002547474539  0.1526029083432615
  0.2370921365747620  0.8328290126187597  0.4983394389160774
  0.4932946662279633  0.0058792250107000  0.6548264063659729
  0.2828135805328197  0.1719340340738369  0.8499280982520927
  0.9921483642305347  0.9988439670381409  0.9977914434131723
  0.0052658887844744  0.0002501872466280  0.6840729887917784
  0.0059655051728654  0.6675392397370942  0.3240067133488870
  0.5107161769629336  0.9972189291881212  0.3359758643263934
  0.5059852939089874  0.3213996992400487  0.6503186169640196
  0.9739612622421604  0.3268339233266696  0.9975436640278709
  0.7388564502003017  0.5124523299908545  0.8318484837693287
  0.7469297076475009  0.1586134150421680  0.1679021041052907
  0.7207092198238069  0.1629730238503928  0.8412565842459881
  0.2639468452499016  0.8317238467351855  0.8371521047620596
  0.5376078002962956  0.3275066719151610  0.0034158145124032
  0.5119714106292513  0.9942845148644668  0.0063825192773484
  0.5152252142682803  0.3330072479123930  0.3431691705860515
  0.9928973772558155  0.3248039061730404  0.6745484848647502
  0.2763317177937973  0.4843476301540719  0.1530014000618096
  0.9844969420171025  0.3482262502653016  0.3271394552972337
  0.4916121095458998  0.6672654998698793  0.3340392376336470
  0.2118826183186139  0.1567176655207700  0.4836811468922775
  0.0064206466771028  0.6700117723855339  0.0113734373821359
  0.7574885395983623  0.5205175799161078  0.5229214467600283
  0.7612937528090608  0.8303668310150397  0.5072137047047626
  0.2595378692433245  0.4968232859601492  0.8331783134569530
  0.2555629335759285  0.1621741251565214  0.1622831633606744
  0.7358431222643974  0.8229581093945064  0.8306989994997038
 
  0.00000000E+00  0.00000000E+00  0.00000000E+00
  0.00000000E+00  0.00000000E+00  0.00000000E+00
  0.00000000E+00  0.00000000E+00  0.00000000E+00
  0.00000000E+00  0.00000000E+00  0.00000000E+00
  0.00000000E+00  0.00000000E+00  0.00000000E+00
  0.00000000E+00  0.00000000E+00  0.00000000E+00
  0.00000000E+00  0.00000000E+00  0.00000000E+00
  0.00000000E+00  0.00000000E+00  0.00000000E+00
  0.00000000E+00  0.00000000E+00  0.00000000E+00
  0.00000000E+00  0.00000000E+00  0.00000000E+00
  0.00000000E+00  0.00000000E+00  0.00000000E+00
  0.00000000E+00  0.00000000E+00  0.00000000E+00
  0.00000000E+00  0.00000000E+00  0.00000000E+00
  0.00000000E+00  0.00000000E+00  0.00000000E+00
  0.00000000E+00  0.00000000E+00  0.00000000E+00
  0.00000000E+00  0.00000000E+00  0.00000000E+00
  0.00000000E+00  0.00000000E+00  0.00000000E+00
  0.00000000E+00  0.00000000E+00  0.00000000E+00
  0.00000000E+00  0.00000000E+00  0.00000000E+00
  0.00000000E+00  0.00000000E+00  0.00000000E+00
  0.00000000E+00  0.00000000E+00  0.00000000E+00
  0.00000000E+00  0.00000000E+00  0.00000000E+00
  0.00000000E+00  0.00000000E+00  0.00000000E+00
  0.00000000E+00  0.00000000E+00  0.00000000E+00
  0.00000000E+00  0.00000000E+00  0.00000000E+00
  0.00000000E+00  0.00000000E+00  0.00000000E+00
  0.00000000E+00  0.00000000E+00  0.00000000E+00
  0.00000000E+00  0.00000000E+00  0.00000000E+00
  0.00000000E+00  0.00000000E+00  0.00000000E+00
  0.00000000E+00  0.00000000E+00  0.00000000E+00
  0.00000000E+00  0.00000000E+00  0.00000000E+00
  0.00000000E+00  0.00000000E+00  0.00000000E+00
  0.00000000E+00  0.00000000E+00  0.00000000E+00
  0.00000000E+00  0.00000000E+00  0.00000000E+00
  0.00000000E+00  0.00000000E+00  0.00000000E+00
  0.00000000E+00  0.00000000E+00  0.00000000E+00
