generated by pypospack
   4.98831
  1.361237  -0.002741  -0.002746
 -0.003872   2.030769  -0.002397
 -0.004075  -0.002476   2.036547
 Ta Zr Hf Nb
 14 6 5 11
Direct
  0.519901   0.996779   0.003650
  0.249187   0.843510   0.498946
  0.751494   0.841070   0.499133
  0.256552   0.499734   0.177435
  0.747883   0.494845   0.494462
  0.744406   0.842297   0.169627
  0.982134   0.000354   0.007179
  0.773150   0.508165   0.824637
  0.252151   0.158752   0.494568
  0.255639   0.142679   0.831698
  0.502493   0.994863   0.658058
  0.497820   0.329515   0.347863
  0.748156   0.163052   0.173021
  0.749704   0.162279   0.499006
  0.997527   0.668939   0.336720
  0.242788   0.840065   0.832926
  0.745641   0.485928   0.177094
  0.015331   0.331751   0.992664
  0.510628   0.662661   0.994564
  0.252444   0.163801   0.173190
  0.257605   0.833387   0.167479
  0.012552   0.333518   0.663875
  0.744977   0.157653   0.829600
  0.502925   0.668413   0.661607
  0.483682   0.338868   0.987059
  0.989203   0.669118   0.001108
  0.499323   0.664382   0.343199
  0.757632   0.839513   0.830458
  0.249752   0.498783   0.489419
  0.507761   0.001401   0.338472
  0.993469   0.997297   0.334912
  0.999128   0.003891   0.659332
  0.995454   0.666730   0.659457
  0.003194   0.331095   0.344824
  0.220628   0.525890   0.834501
  0.487686   0.339035   0.668263
