generated by pypospack                  
   4.98831000000000     
     1.4012883229028263    0.0079212594648853    0.0040580869581962
     0.0116042789619532    2.0445000524730679    0.0020931297247733
     0.0060059769032457    0.0019071312405598    2.0552014191081156
   Ta   Hf   Nb   Zr
     6    11    11     8
Direct
  0.4845007759559675  0.0037688457874521  0.9974881727843353
  0.7265849920171336  0.4935299985966295  0.1746208678320353
  0.0396769751084991  0.0148323125394010  0.6778837399580946
  0.5261251127818541  0.6679192106583549  0.3411292364046115
  0.7660555456091932  0.4950043162731516  0.4912709763815420
  0.9710545318069629  0.6595839335406728  0.3217063492749574
  0.7483916473241714  0.1667201506016875  0.8340455450157187
  0.2681993609451207  0.5086959573786187  0.1709560824372710
  0.5272657131481470  0.6675703482288752  0.6519000657071400
  0.2537789075630644  0.5118762892059329  0.8380037226387719
  0.2358521081929271  0.1660050798584583  0.4806427471234358
  0.0160155147940553  0.3319283215560909  0.0063635937343473
  0.9661137270810584  0.6611688721171732  0.0182791464875132
  0.2611040122057534  0.8238918461693532  0.1705832098168494
  0.4751696715389432  0.0017021230445323  0.6693292131709130
  0.2467016423154772  0.8166856349190665  0.8357114705423480
  0.2358537323682355  0.8310399518449988  0.4912504605053151
  0.2614353809895689  0.1639519229678607  0.1777279179951287
  0.9730319403569702  0.6520816196816283  0.6632191620622789
  0.5298905832290890  0.6761456938494167  0.0086893169425647
  0.7337129223712019  0.8378789427165213  0.1731517089366384
  0.5078844008018315  0.3411980324220512  0.3437250585616003
  0.9904674711781468  0.3442713521707217  0.3213376649421169
  0.0105946506761742  0.3313229885416260  0.6776851520054096
  0.4717673151926550  0.3177794314236118  0.0022549551193036
  0.2526017802018229  0.1710258810289431  0.8361522911002699
  0.5038714993733513  0.9920144083916748  0.3277838050113379
  0.9980167722166443  0.9969696118629202  0.3095195652472164
  0.7753626635643500  0.8438247394904598  0.4982383640865441
  0.0138036965367192  0.0051782847640219  0.0073878403919129
  0.7701662435501858  0.1658350654584944  0.4978637387678586
  0.7335253813951187  0.1700316630199665  0.1673877242920818
  0.4905884810889823  0.3312955656878451  0.6552220611719453
  0.7632747387391181  0.8431050261972037  0.8274064272697739
  0.2351714674754575  0.5060808741188153  0.4944070097601779
  0.7363866403060533  0.4880917038857597  0.8396756365206615
 
  0.00000000E+00  0.00000000E+00  0.00000000E+00
  0.00000000E+00  0.00000000E+00  0.00000000E+00
  0.00000000E+00  0.00000000E+00  0.00000000E+00
  0.00000000E+00  0.00000000E+00  0.00000000E+00
  0.00000000E+00  0.00000000E+00  0.00000000E+00
  0.00000000E+00  0.00000000E+00  0.00000000E+00
  0.00000000E+00  0.00000000E+00  0.00000000E+00
  0.00000000E+00  0.00000000E+00  0.00000000E+00
  0.00000000E+00  0.00000000E+00  0.00000000E+00
  0.00000000E+00  0.00000000E+00  0.00000000E+00
  0.00000000E+00  0.00000000E+00  0.00000000E+00
  0.00000000E+00  0.00000000E+00  0.00000000E+00
  0.00000000E+00  0.00000000E+00  0.00000000E+00
  0.00000000E+00  0.00000000E+00  0.00000000E+00
  0.00000000E+00  0.00000000E+00  0.00000000E+00
  0.00000000E+00  0.00000000E+00  0.00000000E+00
  0.00000000E+00  0.00000000E+00  0.00000000E+00
  0.00000000E+00  0.00000000E+00  0.00000000E+00
  0.00000000E+00  0.00000000E+00  0.00000000E+00
  0.00000000E+00  0.00000000E+00  0.00000000E+00
  0.00000000E+00  0.00000000E+00  0.00000000E+00
  0.00000000E+00  0.00000000E+00  0.00000000E+00
  0.00000000E+00  0.00000000E+00  0.00000000E+00
  0.00000000E+00  0.00000000E+00  0.00000000E+00
  0.00000000E+00  0.00000000E+00  0.00000000E+00
  0.00000000E+00  0.00000000E+00  0.00000000E+00
  0.00000000E+00  0.00000000E+00  0.00000000E+00
  0.00000000E+00  0.00000000E+00  0.00000000E+00
  0.00000000E+00  0.00000000E+00  0.00000000E+00
  0.00000000E+00  0.00000000E+00  0.00000000E+00
  0.00000000E+00  0.00000000E+00  0.00000000E+00
  0.00000000E+00  0.00000000E+00  0.00000000E+00
  0.00000000E+00  0.00000000E+00  0.00000000E+00
  0.00000000E+00  0.00000000E+00  0.00000000E+00
  0.00000000E+00  0.00000000E+00  0.00000000E+00
  0.00000000E+00  0.00000000E+00  0.00000000E+00
