generated by pypospack
   4.98831
  1.361750   0.001549   0.000914
  0.002338   2.046539  -0.005986
  0.001391  -0.005948   2.044613
 Nb Zr Ta Hf
 12 5 10 9
Direct
  0.504414  -0.000315   0.329148
  0.993711   0.004730   0.332906
  0.252446   0.162370   0.489815
  0.002464   0.014552   0.658862
  0.007237   0.663758   0.333213
  0.002197   0.658015   0.668777
  0.746462   0.161469   0.490502
  0.497580   0.007969   0.650926
  0.496814   0.657304   0.665709
  0.998554   0.329934   0.347666
  0.500296   0.333670   0.340718
  0.756477   0.518967   0.827289
  0.257835   0.144910   0.834075
  0.008082   0.342623   0.983703
  0.500535   0.983468   0.020565
  0.502826   0.336750   0.664873
  0.495589   0.667196   0.006074
  0.232567   0.491804   0.176949
  0.247637   0.504273   0.497705
  0.245214   0.522952   0.823082
  0.006188   0.671174   0.000502
  0.223755   0.836792   0.178143
  0.753693   0.503849   0.492544
  0.775398   0.833398   0.178426
 -0.000656   0.985213   0.009887
  0.754704   0.169425   0.170342
  0.241008   0.830833   0.824070
  0.752287   0.835243   0.822903
  0.495408   0.346690   0.994316
  0.242936   0.172112   0.172910
 -0.001202   0.333592   0.661289
  0.244654   0.835291   0.505422
  0.746657   0.150623   0.839682
  0.493027   0.666164   0.326745
  0.768584   0.490384   0.177602
  0.754620   0.832821   0.502661
