generated by pypospack
   4.98831
  1.403592   0.001708   0.000294
  0.002610   2.039582  -0.002018
  0.000306  -0.002071   2.056885
 Ta Hf Nb Zr
 10 9 6 11
Direct
  0.525229   0.331414   0.340535
  0.736320   0.835676   0.152678
  0.979142   0.994589   0.315273
  0.257344   0.848491   0.159639
  0.728405   0.500151   0.166178
  0.757585   0.155189   0.493602
  0.501460   0.670130   0.003928
  0.482447   0.657992   0.673443
  0.251117   0.503573   0.508731
  0.018751   0.658906   0.682744
  0.278547   0.171983   0.841350
  0.992397   0.001656   0.997880
  0.984620   0.332778   0.673296
  0.996759   0.012128   0.684724
  0.008068   0.671891   0.316776
  0.514208   0.995619   0.331860
  0.521558   0.333961   0.656000
  0.967689   0.326997   0.994139
  0.732396   0.827718   0.829720
  0.739643   0.164678   0.168955
  0.718193   0.156775   0.834630
  0.265298   0.831483   0.830352
  0.538511   0.332123   0.000877
  0.740912   0.513799   0.833136
  0.502061   0.993430   0.003825
  0.502165   0.006572   0.661318
  0.271869   0.480670   0.160003
  0.980798   0.337805   0.332028
  0.487350   0.672545   0.325355
  0.243727   0.170871   0.493098
 -0.000950   0.666780   0.004619
  0.756443   0.523093   0.504602
  0.760093   0.831961   0.510287
  0.262990   0.490645   0.840892
  0.256756   0.165103   0.165319
  0.240080   0.830829   0.508208
