generated by pypospack
   4.98831
  1.401955  -0.002294  -0.002419
 -0.003330   2.056585   0.007409
 -0.003445   0.007278   2.051481
 Hf Nb Ta Zr
 11 5 11 9
Direct
  0.761093   0.492077   0.171201
  0.249943   0.828851   0.842321
  0.725839   0.828082   0.507747
  0.736547   0.494922   0.837691
  0.230535   0.509170   0.158096
  0.008375   0.680526   0.336857
  0.761367   0.176815   0.486441
  0.460623   0.332213   0.332218
  0.013034   0.994592   0.329070
  0.516331   0.671776   0.007794
  0.509952   0.015701   0.678730
  0.251713   0.165773   0.159552
  0.978530   0.678214   0.002745
  0.732320   0.180029   0.841625
  0.745465   0.834743   0.167656
  0.267399   0.162829   0.835066
  0.236512   0.168167   0.504744
  0.037492   0.332566   0.339873
  0.273286   0.498818   0.832665
  0.251175   0.826228   0.151568
  0.487266   0.325922   0.669388
  0.482560   0.324541   0.994864
  0.274344   0.505348   0.503096
  0.492672   0.669003   0.315705
  0.504300  -0.000829   0.000125
  0.495083   0.654993   0.678315
  0.744709   0.822485   0.826995
  0.735843   0.495842   0.491460
  0.989518   0.000028   0.000576
  0.018834   0.322770   0.986676
  0.010862   0.657439   0.664440
  0.484470   0.000291   0.321438
  0.989340   0.006032   0.674057
  0.280617   0.827222   0.508476
  0.013764   0.336900   0.668778
  0.748282   0.179928   0.171948
