generated by pypospack                  
   4.98831000000000     
     1.3937209650602902    0.0009032066743109   -0.0032102015733720
     0.0014579030987506    2.0492006953496325    0.0078353470077549
    -0.0046954603283388    0.0078496791978624    2.0573420832526406
   Hf   Nb   Ta   Zr
    11     7    10     8
Direct
  0.4769372072970368  0.3294023678447980  0.9968957350659523
  0.7666046501249165  0.4954771630122955  0.1645430347057854
  0.2697883470197541  0.8217528437907449  0.8133697714137159
  0.7532191886126368  0.4997235475027526  0.8351548935264415
  0.2261894811843741  0.4972817488465174  0.1740565549141681
  0.9938760053718945  0.6788904740359172  0.3399463037976144
  0.4946487969257824  0.6746071260670169  0.0186809093547689
  0.5200633412279001  0.0291923509804590  0.6690354796652372
  0.9842605676976635  0.0086785551540049  0.6669202127156127
  0.7297719549668894  0.8139948509811422  0.8083430435192597
  0.4942268913965102  0.0006378331913196  0.0004076633640367
  0.7611609195011343  0.1756600162578774  0.4901828488983999
  0.2260387684281711  0.1676054192635831  0.1707718288075648
  0.7574931003647472  0.1845600711454702  0.8486111693647258
  0.2448870425970477  0.1703991367850428  0.8330309391305729
  0.0264801429561332  0.3297052444636877  0.9877656264869235
  0.7449019743819291  0.8275736983094478  0.5035244572964155
  0.2517041741371518  0.8363938029854548  0.1833313183573203
  0.7483782986137287  0.8393389018190011  0.1835209745540031
  0.2427958717572890  0.1629832779686772  0.4984388391803046
  0.0157630543614058  0.3234308513194842  0.3459823905854832
  0.2470619105826060  0.5052538163838561  0.8250174565570791
  0.4896966013799909  0.3308884084932714  0.6724055621143383
  0.2526396275435798  0.4968487193134498  0.4988206579883580
  0.5029216562426131  0.6728325617527613  0.3268539764119426
  0.4861363732900996  0.6378365756707488  0.6549649936535044
  0.0115875954480914  0.6568816305540682  0.6564946271743456
  0.9979516545463334  0.9963455502576342  0.3399787763839795
  0.4873578250888591  0.3236156816579264  0.3303733376699293
  0.7441894868384531  0.4956852228133926  0.4970819494615059
  0.0059998443041980  0.9929235690220047  0.9985311311959540
  0.5022628714409266  0.0034174957937988  0.3324429711147338
  0.2602989597021182  0.8361683714792266  0.5060828848073010
  0.7738658916316613  0.1704542329847272  0.1609310600510134
  0.0045680333504357  0.6856199286601229  0.0012526809903591
  0.0042738896859398  0.3279549534383198  0.6662529397213673
 
  0.00000000E+00  0.00000000E+00  0.00000000E+00
  0.00000000E+00  0.00000000E+00  0.00000000E+00
  0.00000000E+00  0.00000000E+00  0.00000000E+00
  0.00000000E+00  0.00000000E+00  0.00000000E+00
  0.00000000E+00  0.00000000E+00  0.00000000E+00
  0.00000000E+00  0.00000000E+00  0.00000000E+00
  0.00000000E+00  0.00000000E+00  0.00000000E+00
  0.00000000E+00  0.00000000E+00  0.00000000E+00
  0.00000000E+00  0.00000000E+00  0.00000000E+00
  0.00000000E+00  0.00000000E+00  0.00000000E+00
  0.00000000E+00  0.00000000E+00  0.00000000E+00
  0.00000000E+00  0.00000000E+00  0.00000000E+00
  0.00000000E+00  0.00000000E+00  0.00000000E+00
  0.00000000E+00  0.00000000E+00  0.00000000E+00
  0.00000000E+00  0.00000000E+00  0.00000000E+00
  0.00000000E+00  0.00000000E+00  0.00000000E+00
  0.00000000E+00  0.00000000E+00  0.00000000E+00
  0.00000000E+00  0.00000000E+00  0.00000000E+00
  0.00000000E+00  0.00000000E+00  0.00000000E+00
  0.00000000E+00  0.00000000E+00  0.00000000E+00
  0.00000000E+00  0.00000000E+00  0.00000000E+00
  0.00000000E+00  0.00000000E+00  0.00000000E+00
  0.00000000E+00  0.00000000E+00  0.00000000E+00
  0.00000000E+00  0.00000000E+00  0.00000000E+00
  0.00000000E+00  0.00000000E+00  0.00000000E+00
  0.00000000E+00  0.00000000E+00  0.00000000E+00
  0.00000000E+00  0.00000000E+00  0.00000000E+00
  0.00000000E+00  0.00000000E+00  0.00000000E+00
  0.00000000E+00  0.00000000E+00  0.00000000E+00
  0.00000000E+00  0.00000000E+00  0.00000000E+00
  0.00000000E+00  0.00000000E+00  0.00000000E+00
  0.00000000E+00  0.00000000E+00  0.00000000E+00
  0.00000000E+00  0.00000000E+00  0.00000000E+00
  0.00000000E+00  0.00000000E+00  0.00000000E+00
  0.00000000E+00  0.00000000E+00  0.00000000E+00
  0.00000000E+00  0.00000000E+00  0.00000000E+00
