generated by pypospack
   4.98831
  1.394555   0.000987  -0.003027
  0.001580   2.046539   0.007306
 -0.004421   0.007299   2.060000
 Hf Nb Ta Zr
 11 7 10 8
Direct
  0.476098   0.329015   0.997694
  0.767618   0.494067   0.164047
  0.269863   0.821700   0.814023
  0.753342   0.499137   0.834947
  0.225939   0.500784   0.173765
  0.990226   0.678432   0.341231
  0.496590   0.674624   0.018287
  0.519792   0.028959   0.668534
  0.984688   0.008634   0.666808
  0.729088   0.813947   0.807426
  0.494892   0.000274   0.000649
  0.761942   0.176215   0.490336
  0.226179   0.164648   0.170674
  0.757535   0.184967   0.848182
  0.244619   0.169960   0.833223
  0.028016   0.329641   0.987950
  0.744973   0.827794   0.504372
  0.253048   0.834725   0.185428
  0.746675   0.839446   0.183042
  0.243129   0.163712   0.498671
  0.017430   0.323932   0.345437
  0.247017   0.505432   0.825090
  0.489217   0.330545   0.672454
  0.252971   0.496337   0.499597
  0.504444   0.671781   0.326788
  0.484982   0.638172   0.655419
  0.011958   0.657158   0.656232
  0.997539   0.996450   0.339619
  0.486549   0.324351   0.329593
  0.743205   0.495469   0.498078
  0.003798   0.992186   0.998413
  0.504214   0.004899   0.333086
  0.260019   0.836218   0.503393
  0.774808   0.171813   0.160744
  0.002441   0.686696   0.000553
  0.005158   0.327896   0.666214
