generated by pypospack
   4.98831
  1.410506  -0.001793  -0.001518
 -0.002466   2.047895  -0.006238
 -0.002327  -0.006346   2.065851
 Hf Ta Nb Zr
 11 8 6 11
Direct
  0.724848   0.506675   0.167690
  0.276051   0.173214   0.842898
  0.990912   0.000724   0.998589
  0.986364   0.336803   0.673165
 -0.008334   0.009634   0.689146
  0.017927   0.670558   0.318020
  0.516241   0.000579   0.333840
  0.521431   0.330308   0.656361
  0.972210   0.328165   0.993801
  0.733870   0.820784   0.832063
  0.523838   0.322318   0.347526
  0.733102   0.833503   0.155620
  0.977591   0.994553   0.312172
  0.257396   0.853834   0.160763
  0.782866   0.160318   0.487341
  0.486065   0.677639   0.001300
  0.483026   0.659427   0.672598
  0.261259   0.503056   0.509277
  0.012982   0.650945   0.679136
  0.740317   0.166515   0.168127
  0.720771   0.160555   0.841150
  0.259397   0.827586   0.832021
  0.539598   0.327285  -0.004241
  0.739511   0.512918   0.833415
  0.502965   0.994142   0.004153
  0.505284   0.003100   0.658660
  0.279563   0.481066   0.160013
  0.992039   0.342876   0.328114
  0.476488   0.682332   0.330697
  0.224668   0.168282   0.492523
  0.007826   0.669238   0.003615
  0.743553   0.517981   0.499287
  0.767999   0.825681   0.507083
  0.264862   0.490828   0.838388
  0.259475   0.165844   0.164441
  0.226023   0.830740   0.511246
