generated by pypospack
   4.98831
  1.402312   0.000308  -0.001939
  0.000391   2.071915   0.004258
 -0.002854   0.004213   2.055057
 Zr Nb Ta Hf
 12 10 6 8
Direct
  0.258613   0.166048   0.170031
  0.971794  -0.000015   0.022204
  0.759627   0.165106   0.501729
  0.247730   0.164366   0.842696
  0.768122   0.169785   0.818381
  0.257672   0.503113   0.169386
  0.537418   0.990440   0.001789
  0.721806   0.176994   0.183837
  0.744613   0.496854   0.821929
  0.475894   0.666213   0.657966
  0.474968   0.332391   0.656839
  0.765716   0.834786   0.812744
  0.488021   0.993182   0.349458
  0.738659   0.825936   0.187267
  0.233738   0.168236   0.487566
  0.491911   0.333342   0.348353
  0.269950   0.497850   0.848687
  0.989972   0.330343   0.316243
  0.031845   0.338010   0.671544
  0.984437   0.674269   0.317831
  0.239905   0.832889   0.481003
  0.507691   0.346432   0.994058
  0.730935   0.499968   0.177324
  0.523784   0.665608   0.008272
  0.001021   0.995725   0.333857
  0.040261   0.996734   0.649681
  0.506099   0.670912   0.335283
  0.764977   0.500423   0.493049
  0.986886   0.342873   0.008458
  0.979176   0.661524   0.005666
  0.258127   0.831319   0.167716
  0.471858   0.998563   0.653628
  0.761077   0.832027   0.501450
  0.225619   0.497131   0.476132
  0.038189   0.661835   0.673488
  0.251896   0.838794   0.854451
