generated by pypospack                  
   4.98831000000000     
     1.4045474929175321    0.0005072714474987    0.0042844870336952
     0.0009445549054690    2.0744419662640436   -0.0012811422691025
     0.0063765871383417   -0.0012696725061482    2.0570132234908209
   Zr   Ta   Nb   Hf
     8     9     5    14
Direct
  0.5006477027766425  0.0068568353547983  0.0015448022641258
  0.7462576493480163  0.4958746699063218  0.4959516342136356
  0.9862102114109351  0.0000724965980472 -0.0021910947248082
  0.0090445232737298  0.3241260814536636  0.9900746805120898
  0.0162285938447995  0.6732093925816861  0.6528217913230471
  0.4854864550206681  0.0027824867681073  0.3202195032576389
  0.3022394371197150  0.8269801538151254  0.5097310760201962
  0.7747759936635881  0.1784565435050768  0.1882669150491177
  0.7536307689967550  0.8215845928587791  0.1758947966620705
  0.2375962960048417  0.1780320468630791  0.5083735264619376
  0.0370029723385044  0.3338659859631731  0.3435985592892644
  0.2365668974110731  0.4992092950581975  0.8298188919941312
  0.2409471357266625  0.8227992562171363  0.1506038618222698
  0.4871617370319825  0.3337337977434310  0.6667653849485270
  0.2598678606814543  0.4946594619897605  0.5023062999312374
  0.4913342649085077  0.6652876124362245  0.3145602676747169
  0.4804655839928531  0.6372058935838307  0.6761506896677540
  0.0146278520174443  0.3346200416625119  0.6683226006040704
  0.2255941196177794  0.1638102781712332  0.1664327703154447
  0.9839801406815200  0.6735588526660210  0.0036114788684878
  0.7503414217061911  0.1898844950024938  0.8175892564207531
  0.2450746451656127  0.1765314109028002  0.8240882071030141
  0.4914239775364397  0.3269017611664218  0.9981400190528805
  0.7675214108216576  0.4999486489894580  0.1776966697440721
  0.2571867522866877  0.8239474158511817  0.8434303147792540
  0.7246435662100699  0.8313230637158231  0.5001652081476311
  0.7621601389876242  0.4979874385322977  0.8258319864829288
  0.2258169668191246  0.5056099947658025  0.1632806986176074
  0.0182684993017260  0.6799137993539787  0.3441822698953030
  0.7637350389421478  0.1768135849406680  0.4994010050521333
  0.4702530427227833  0.3270909761160680  0.3280969879432574
  0.0187808240614620  0.9881250875066688  0.3383909017225587
  0.5094629655773747  0.6605930731274928  0.0108758875168019
  0.4956090320297470  0.0268825462180449  0.6780607613312217
  0.0019691444672803  0.0028488806573376  0.6698650786664923
  0.7280883774966075  0.8188820479572606  0.8180463113691439
 
  0.00000000E+00  0.00000000E+00  0.00000000E+00
  0.00000000E+00  0.00000000E+00  0.00000000E+00
  0.00000000E+00  0.00000000E+00  0.00000000E+00
  0.00000000E+00  0.00000000E+00  0.00000000E+00
  0.00000000E+00  0.00000000E+00  0.00000000E+00
  0.00000000E+00  0.00000000E+00  0.00000000E+00
  0.00000000E+00  0.00000000E+00  0.00000000E+00
  0.00000000E+00  0.00000000E+00  0.00000000E+00
  0.00000000E+00  0.00000000E+00  0.00000000E+00
  0.00000000E+00  0.00000000E+00  0.00000000E+00
  0.00000000E+00  0.00000000E+00  0.00000000E+00
  0.00000000E+00  0.00000000E+00  0.00000000E+00
  0.00000000E+00  0.00000000E+00  0.00000000E+00
  0.00000000E+00  0.00000000E+00  0.00000000E+00
  0.00000000E+00  0.00000000E+00  0.00000000E+00
  0.00000000E+00  0.00000000E+00  0.00000000E+00
  0.00000000E+00  0.00000000E+00  0.00000000E+00
  0.00000000E+00  0.00000000E+00  0.00000000E+00
  0.00000000E+00  0.00000000E+00  0.00000000E+00
  0.00000000E+00  0.00000000E+00  0.00000000E+00
  0.00000000E+00  0.00000000E+00  0.00000000E+00
  0.00000000E+00  0.00000000E+00  0.00000000E+00
  0.00000000E+00  0.00000000E+00  0.00000000E+00
  0.00000000E+00  0.00000000E+00  0.00000000E+00
  0.00000000E+00  0.00000000E+00  0.00000000E+00
  0.00000000E+00  0.00000000E+00  0.00000000E+00
  0.00000000E+00  0.00000000E+00  0.00000000E+00
  0.00000000E+00  0.00000000E+00  0.00000000E+00
  0.00000000E+00  0.00000000E+00  0.00000000E+00
  0.00000000E+00  0.00000000E+00  0.00000000E+00
  0.00000000E+00  0.00000000E+00  0.00000000E+00
  0.00000000E+00  0.00000000E+00  0.00000000E+00
  0.00000000E+00  0.00000000E+00  0.00000000E+00
  0.00000000E+00  0.00000000E+00  0.00000000E+00
  0.00000000E+00  0.00000000E+00  0.00000000E+00
  0.00000000E+00  0.00000000E+00  0.00000000E+00
