generated by pypospack
   4.98831
  1.395143  -0.000385   0.000661
 -0.000397   2.072725   0.004654
  0.001015   0.004609   2.047394
 Ta Hf Nb Zr
 10 13 5 8
Direct
  0.750165   0.823143   0.182146
  0.232771   0.174046   0.510013
  0.036843   0.338001   0.340229
  0.260257   0.495208   0.830448
  0.239270   0.822351   0.151862
  0.489160   0.329163   0.667327
  0.485526   0.325478   0.991863
  0.271305   0.498963   0.510977
  0.486274   0.665317   0.315249
  0.500285   0.658093   0.682193
  0.755648   0.496905   0.172249
  0.236607   0.824229   0.842362
  0.727363   0.831188   0.495807
  0.750644   0.493529   0.832208
  0.238051   0.504920   0.150826
  0.019501   0.671891   0.341590
  0.764900   0.177048   0.495549
  0.462080   0.332333   0.334908
  0.015710   0.993831   0.331046
  0.516093   0.672336   0.002055
  0.510371   0.011477   0.680459
  0.991614   0.005168   0.674666
  0.759576   0.816594   0.824539
  0.016001   0.335280   0.668333
  0.240473   0.170204   0.162742
  0.977236   0.674757   0.004606
  0.741168   0.189921   0.826394
  0.255744   0.173861   0.825907
  0.501776   0.003414   0.998704
  0.740895   0.493082   0.494633
  0.985022   0.000750   0.000040
  0.011839   0.318136   0.990698
  0.009246   0.661738   0.655005
  0.477409   0.005059   0.322435
  0.289577   0.828705   0.507588
  0.753599   0.183890   0.182345
