generated by pypospack
   4.98831
  1.390676  -0.003778   0.011904
 -0.005579   2.052174  -0.001057
  0.017465  -0.001260   2.036749
 Hf Zr Nb Ta
 8 8 12 8
Direct
  0.226968   0.170800   0.485781
  0.266643   0.505669   0.169309
  0.998782   0.341272   0.997808
  0.978511   0.662889   0.006091
  0.267440   0.826367   0.167283
  0.467191   0.006454   0.658197
  0.757951   0.833232   0.506182
  0.012526   0.659991   0.670034
  0.255471   0.170802   0.176737
  0.002065   0.997333   0.006213
  0.771697   0.163034   0.501206
  0.752819   0.167004   0.826475
  0.724585   0.169161   0.170388
  0.493373   0.336826   0.664935
  0.741004   0.837325   0.822169
  0.242219   0.493988   0.486831
  0.274993   0.821744   0.846283
  0.534131   0.660337   0.002145
  0.993497   0.983456   0.322814
  0.498217   0.987560   0.345834
  0.737685   0.833744   0.178937
  0.517437   0.343241   0.344084
  0.264742   0.504631   0.839047
  0.974452   0.348831   0.314852
  0.006148   0.347129   0.683345
  0.249000   0.830313   0.489461
  0.492068   0.334632   0.986715
  0.246346   0.168460   0.836631
  0.739084   0.496607   0.831822
  0.729961   0.499780   0.171393
  0.036785   0.991558   0.670822
  0.517986   0.669632   0.340696
  0.755337   0.506349   0.495250
  0.984994   0.668405   0.327437
  0.499774   0.652271   0.660593
  0.488112   0.009181   0.996200
