generated by pypospack                  
   4.98831000000000     
     1.3856869941355192    0.0017106971656587    0.0037286280279340
     0.0025788691366516    2.0436694159200806   -0.0000780991819673
     0.0055551269883942   -0.0001402600548681    2.0383118676934320
   Ta   Nb   Zr   Hf
    11     9     6    10
Direct
  0.2433756478263178  0.1695122466194838  0.5110528689706821
  0.0364335530087506  0.3310147469422506  0.3432464241194054
  0.0125093081992787  0.3318395985321980  0.6714336113677936
  0.2652353500403470  0.5022558760966732  0.8341779303149444
  0.2841433736249105  0.8315066750212990  0.5112010751562723
  0.2637048946616132  0.8234425836815483  0.1516208556645449
  0.4843207721185411  0.3318224192753977  0.6675659012304019
  0.4878640591759946  0.3176247201453264  0.9911479179333463
  0.2491318241369299  0.4997501706181229  0.5086782110606560
  0.4797908994782882  0.6686136149166850  0.3310646984976182
  0.5076724749962424  0.0035902543906107  0.0024563815883517
  0.5127401078672689  0.6736702203605922  0.0045763837545578
  0.7353918334207598  0.8273183959492388  0.8392092074329063
  0.2472575124756190  0.1685801211347339  0.1593313939615690
  0.9893320465594659  0.6779651565977016  0.0031413407865863
  0.4984976015343056  0.0097010412676898  0.6744338136680403
  0.7349513425870987  0.1700727143796117  0.8237299489803036
  0.7420691053584615  0.8290386243848558  0.1651334939874460
  0.2641697797610255  0.1600604905608356  0.8252251837599357
  0.4919318589916617  0.6571385242874849  0.6668010111414537
  0.7482921553187021  0.4940884499085614  0.4981538420802362
  0.9921156005628627  0.9975760292781789  0.9982933970728222
  0.0117038584423026  0.3236519999587608  0.9801622930709779
  0.0026017536528813  0.6697457479941017  0.6678772511360657
  0.4843972701730418  0.0005806834398861  0.3208163403285880
  0.7523319200775784  0.4982626616633059  0.1683630043608969
  0.2681130556065802  0.8296780399018562  0.8390975586067720
  0.7172373507757579  0.8338218496006551  0.5026789475371279
 -0.0013626480078736  0.9978547796187844  0.6681625048854685
  0.7339862299255816  0.4990087507987691  0.8342257265724453
  0.2465657773944540  0.5076028798760416  0.1529937700600952
  0.0193426651527681  0.6807915703934662  0.3382595309503698
  0.7558311854641616  0.1744680756681347  0.4981735719380697
  0.4634338072904480  0.3344274914745407  0.3349186838423238
  0.0173890919964378  0.9932000273783236  0.3358354059383712
  0.7574845803514317  0.1807357678842897  0.1767575182425482
 
  0.00000000E+00  0.00000000E+00  0.00000000E+00
  0.00000000E+00  0.00000000E+00  0.00000000E+00
  0.00000000E+00  0.00000000E+00  0.00000000E+00
  0.00000000E+00  0.00000000E+00  0.00000000E+00
  0.00000000E+00  0.00000000E+00  0.00000000E+00
  0.00000000E+00  0.00000000E+00  0.00000000E+00
  0.00000000E+00  0.00000000E+00  0.00000000E+00
  0.00000000E+00  0.00000000E+00  0.00000000E+00
  0.00000000E+00  0.00000000E+00  0.00000000E+00
  0.00000000E+00  0.00000000E+00  0.00000000E+00
  0.00000000E+00  0.00000000E+00  0.00000000E+00
  0.00000000E+00  0.00000000E+00  0.00000000E+00
  0.00000000E+00  0.00000000E+00  0.00000000E+00
  0.00000000E+00  0.00000000E+00  0.00000000E+00
  0.00000000E+00  0.00000000E+00  0.00000000E+00
  0.00000000E+00  0.00000000E+00  0.00000000E+00
  0.00000000E+00  0.00000000E+00  0.00000000E+00
  0.00000000E+00  0.00000000E+00  0.00000000E+00
  0.00000000E+00  0.00000000E+00  0.00000000E+00
  0.00000000E+00  0.00000000E+00  0.00000000E+00
  0.00000000E+00  0.00000000E+00  0.00000000E+00
  0.00000000E+00  0.00000000E+00  0.00000000E+00
  0.00000000E+00  0.00000000E+00  0.00000000E+00
  0.00000000E+00  0.00000000E+00  0.00000000E+00
  0.00000000E+00  0.00000000E+00  0.00000000E+00
  0.00000000E+00  0.00000000E+00  0.00000000E+00
  0.00000000E+00  0.00000000E+00  0.00000000E+00
  0.00000000E+00  0.00000000E+00  0.00000000E+00
  0.00000000E+00  0.00000000E+00  0.00000000E+00
  0.00000000E+00  0.00000000E+00  0.00000000E+00
  0.00000000E+00  0.00000000E+00  0.00000000E+00
  0.00000000E+00  0.00000000E+00  0.00000000E+00
  0.00000000E+00  0.00000000E+00  0.00000000E+00
  0.00000000E+00  0.00000000E+00  0.00000000E+00
  0.00000000E+00  0.00000000E+00  0.00000000E+00
  0.00000000E+00  0.00000000E+00  0.00000000E+00
