generated by pypospack
   4.98831
  1.386631   0.002678   0.005291
  0.004001   2.050957  -0.000223
  0.007845  -0.000281   2.042080
 Ta Nb Zr Hf
 11 9 6 10
Direct
  0.246988   0.169481   0.510419
  0.036126   0.335494   0.348097
  0.013677   0.333068   0.670292
  0.266857   0.502618   0.834539
  0.285477   0.831144   0.510673
  0.257911   0.817740   0.153986
  0.485226   0.332391   0.667275
  0.487994   0.317084   0.992793
  0.256617   0.500354   0.509692
  0.483460   0.668192   0.331588
  0.506307   0.005558   0.001565
  0.511361   0.674787   0.004156
  0.739262   0.820908   0.836016
  0.225087   0.173269   0.163373
  0.990881   0.675029   0.002990
  0.497292   0.010206   0.674884
  0.736466   0.177212   0.817648
  0.744492   0.821856   0.168944
  0.261261   0.163612   0.821994
  0.494620   0.658808   0.667106
  0.747050   0.492940   0.497105
  0.989308   0.995563   0.999190
  0.010707   0.326050   0.977261
  0.002918   0.669362   0.665041
  0.482469   0.001602   0.319710
  0.750325   0.499527   0.168315
  0.263369   0.827139   0.837429
  0.717343   0.837207   0.502003
 -0.000448  -0.001901   0.667958
  0.733546   0.499498   0.834939
  0.250588   0.507616   0.152217
  0.018213   0.677328   0.340645
  0.752672   0.172791   0.500106
  0.464966   0.331846   0.332021
  0.018079   0.990515   0.336612
  0.771520   0.184119   0.181415
