generated by pypospack                  
   4.98831000000000     
     1.3976369645162550    0.0020581164492466   -0.0023569146740109
     0.0031173713023047    2.0381306781561159   -0.0001739598900133
    -0.0035707306613367   -0.0002117981207772    2.0538695918626031
   Ta   Zr   Nb   Hf
    12     9     6     9
Direct
  0.5107676596382347  0.3356655320767962  0.3360527289488511
  0.7380947651892407  0.8344425037704880  0.1534088624935215
  0.9764799764637686  0.9954619161394533  0.3153502116753923
  0.2771080546471096  0.4819193439794050  0.1562295589584098
  0.2560826453817661  0.8486945535461656  0.1617925506860227
  0.5119759426946243  0.0052404696084601  0.6605276041620847
  0.7276891754594363  0.4983382448995550  0.1654420363786328
  0.7648374859145868  0.1602161870419518  0.4898472104236165
  0.4947009612785448  0.6664163994264629  0.0069605022360962
  0.4841214910256506  0.6589110882991396  0.6720865942073273
  0.2495284170067845  0.5069836325437819  0.5108559582159921
  0.0169511356275641  0.6623196692597573  0.6843575529709226
 -0.0029128683376880  0.3438494792559976  0.3270802415570453
  0.4857853454077553  0.6677443930935556  0.3251219358281445
  0.2374329785422477  0.1632971659878128  0.4962855475254691
  0.0036143078624152  0.6644859843166542  0.0057892497565711
  0.7608883415145479  0.5213877967101803  0.5026511151399856
  0.7610061624145631  0.8284678187996415  0.5086182687044865
  0.2624538499080316  0.4903834609797869  0.8390525241924167
  0.2566540762349705  0.1676531851929632  0.1655908451543857
  0.2426429433745076  0.8321277886428398  0.5065173597686847
  0.7401392451124363  0.1690300025722035  0.1696621848366985
  0.7140496506543789  0.1598257801055764  0.8376943161529984
  0.2651550798791233  0.8315822768678879  0.8320701112719368
  0.5262253360445192  0.3352604800946107  0.0054409495935680
  0.7386148553186146  0.5132316856366637  0.8347894380442274
  0.5006537478875428  0.9925130669195305  0.0045456294620210
  0.2799808178635802  0.1677834028830779  0.8362090111928756
  0.9906923716399730  0.0030570868233424 -0.0012937747776862
  0.9827695572661286  0.3317386691727429  0.6753282166996241
  0.9861494773624587  0.0093748328466670  0.6859254299558892
  0.0151945434681260  0.6649707835237252  0.3147678384564039
  0.5185664921515486  0.9982149514076880  0.3321522797653828
  0.5206461814049037  0.3338641143903955  0.6525910864465488
  0.9760554768601430  0.3301321957864178  0.9964892572347740
  0.7291883198378658  0.8254190573986226  0.8340095666806632
 
  0.00000000E+00  0.00000000E+00  0.00000000E+00
  0.00000000E+00  0.00000000E+00  0.00000000E+00
  0.00000000E+00  0.00000000E+00  0.00000000E+00
  0.00000000E+00  0.00000000E+00  0.00000000E+00
  0.00000000E+00  0.00000000E+00  0.00000000E+00
  0.00000000E+00  0.00000000E+00  0.00000000E+00
  0.00000000E+00  0.00000000E+00  0.00000000E+00
  0.00000000E+00  0.00000000E+00  0.00000000E+00
  0.00000000E+00  0.00000000E+00  0.00000000E+00
  0.00000000E+00  0.00000000E+00  0.00000000E+00
  0.00000000E+00  0.00000000E+00  0.00000000E+00
  0.00000000E+00  0.00000000E+00  0.00000000E+00
  0.00000000E+00  0.00000000E+00  0.00000000E+00
  0.00000000E+00  0.00000000E+00  0.00000000E+00
  0.00000000E+00  0.00000000E+00  0.00000000E+00
  0.00000000E+00  0.00000000E+00  0.00000000E+00
  0.00000000E+00  0.00000000E+00  0.00000000E+00
  0.00000000E+00  0.00000000E+00  0.00000000E+00
  0.00000000E+00  0.00000000E+00  0.00000000E+00
  0.00000000E+00  0.00000000E+00  0.00000000E+00
  0.00000000E+00  0.00000000E+00  0.00000000E+00
  0.00000000E+00  0.00000000E+00  0.00000000E+00
  0.00000000E+00  0.00000000E+00  0.00000000E+00
  0.00000000E+00  0.00000000E+00  0.00000000E+00
  0.00000000E+00  0.00000000E+00  0.00000000E+00
  0.00000000E+00  0.00000000E+00  0.00000000E+00
  0.00000000E+00  0.00000000E+00  0.00000000E+00
  0.00000000E+00  0.00000000E+00  0.00000000E+00
  0.00000000E+00  0.00000000E+00  0.00000000E+00
  0.00000000E+00  0.00000000E+00  0.00000000E+00
  0.00000000E+00  0.00000000E+00  0.00000000E+00
  0.00000000E+00  0.00000000E+00  0.00000000E+00
  0.00000000E+00  0.00000000E+00  0.00000000E+00
  0.00000000E+00  0.00000000E+00  0.00000000E+00
  0.00000000E+00  0.00000000E+00  0.00000000E+00
  0.00000000E+00  0.00000000E+00  0.00000000E+00
