generated by pypospack
   4.98831
  1.391289   0.002320  -0.004008
  0.003480   2.043161   0.002824
 -0.005995   0.002814   2.047119
 Ta Zr Nb Hf
 12 9 6 9
Direct
  0.508659   0.334809   0.337691
  0.738968   0.833422   0.156117
  0.979521   0.994511   0.313944
  0.277285   0.481749   0.154595
  0.259542   0.847239   0.156529
  0.513472  -0.002397   0.666769
  0.728592   0.497659   0.165513
  0.765415   0.157787   0.488903
  0.501252   0.668865   0.002341
  0.500170   0.667889   0.679036
  0.244967   0.511981   0.515331
  0.001382   0.670705   0.690414
  0.000261   0.342788   0.327495
  0.483539   0.664673   0.324708
  0.236458   0.158415   0.497124
  0.000554   0.666504   0.003464
  0.765917   0.518600   0.501954
  0.760350   0.828247   0.506907
  0.260267   0.493237   0.834384
  0.258085   0.168126   0.164303
  0.245034   0.829985   0.509373
  0.741149   0.169586   0.170214
  0.710898   0.161981   0.837534
  0.263120   0.834290   0.835884
  0.523909   0.336258   0.004973
  0.738191   0.510553   0.834253
  0.505480   0.991824   0.001451
  0.278499   0.166982   0.833671
  0.986948   0.003550  -0.001925
  0.981280   0.327836   0.674587
  0.981164   0.005159   0.687414
  0.017923   0.664351   0.313396
  0.517376   0.997755   0.331473
  0.517197   0.334020   0.647853
  0.976385   0.331183   0.996022
  0.730775   0.829883   0.836305
