generated by pypospack                  
   4.98831000000000     
     1.3695421979387921    0.0015394715584748   -0.0005461593620360
     0.0023324969826746    2.0446043663075963   -0.0056036017948300
    -0.0007885819694549   -0.0055534810297009    2.0477469633152552
   Ta   Hf   Nb   Zr
    11     8    10     7
Direct
  0.2293034765462290  0.4958217600210295  0.1806170102105595
  0.9942207764014069  0.3328300429629372  0.3487014265010995
  0.2439931066486712  0.5087825617550072  0.4959638453054859
  0.2427233697335615  0.5192900701027252  0.8224172912156751
  0.0157636320197032  0.6769248263924964  0.0042885889283640
  0.2273669923454969  0.8402461762672423  0.1824589052528880
  0.5019159765915340  0.3377444204416354  0.3385769927476446
  0.7521761038941293  0.5066404726194824  0.4961840760482442
  0.7704946681591278  0.8348997965653014  0.1765805555165884
  0.9975430488013732  0.9832468306545715  0.0101866080188842
  0.7549040399861925  0.1690084662423341  0.1700626198900869
  0.4807534362371466  0.3396440437459672  0.0024545395734275
  0.2427718932196039  0.1658888552426674  0.1786580469974319
  0.0027672937556236  0.3310195540861792  0.6550679317710063
  0.2457621175101019  0.8352949430975997  0.5014367225123840
  0.7543750593147303  0.1582138758475390  0.8408288538236968
  0.7609932483042853  0.5085203437567851  0.8358594553173132
  0.4972666146733953  0.6633547602348426  0.3260928516338074
  0.7707887980119490  0.4919175619503605  0.1657879537774902
  0.5065986980705834  0.0022467831527056  0.3298243736115262
  0.9884499670870585  0.0065039719371825  0.3329114617449404
  0.2517974270933470  0.1619673498565141  0.4887366056238915
 -0.0006610906738932  0.0124608985184326  0.6578556887573387
  0.0000698083444171  0.6639328986484748  0.3319629470916352
  0.0090594414645737  0.6605093242540049  0.6672657079493814
  0.2446105641076097  0.8317802288526267  0.8220218628243678
  0.7449286422546157  0.1625644629291402  0.4899725587623380
  0.4999060811493205  0.0082142151949349  0.6534724424867308
  0.4894787300206900  0.6573936457056662  0.6636248765994524
  0.2514317994379310  0.1425693863906221  0.8289832861143496
  0.0353554419696424  0.3361850765208651  0.9893928725355944
  0.5020484432989900  0.9861392071955537  0.0154348015555954
  0.4972529783600269  0.3346844769787076  0.6599451385843265
  0.4886975843548350  0.6693097462388432  0.0085209507047458
  0.7519137385769119  0.8318680135314939  0.5044993100301888
  0.7531770929290833  0.8323819521075105  0.8233518399815116
 
  0.00000000E+00  0.00000000E+00  0.00000000E+00
  0.00000000E+00  0.00000000E+00  0.00000000E+00
  0.00000000E+00  0.00000000E+00  0.00000000E+00
  0.00000000E+00  0.00000000E+00  0.00000000E+00
  0.00000000E+00  0.00000000E+00  0.00000000E+00
  0.00000000E+00  0.00000000E+00  0.00000000E+00
  0.00000000E+00  0.00000000E+00  0.00000000E+00
  0.00000000E+00  0.00000000E+00  0.00000000E+00
  0.00000000E+00  0.00000000E+00  0.00000000E+00
  0.00000000E+00  0.00000000E+00  0.00000000E+00
  0.00000000E+00  0.00000000E+00  0.00000000E+00
  0.00000000E+00  0.00000000E+00  0.00000000E+00
  0.00000000E+00  0.00000000E+00  0.00000000E+00
  0.00000000E+00  0.00000000E+00  0.00000000E+00
  0.00000000E+00  0.00000000E+00  0.00000000E+00
  0.00000000E+00  0.00000000E+00  0.00000000E+00
  0.00000000E+00  0.00000000E+00  0.00000000E+00
  0.00000000E+00  0.00000000E+00  0.00000000E+00
  0.00000000E+00  0.00000000E+00  0.00000000E+00
  0.00000000E+00  0.00000000E+00  0.00000000E+00
  0.00000000E+00  0.00000000E+00  0.00000000E+00
  0.00000000E+00  0.00000000E+00  0.00000000E+00
  0.00000000E+00  0.00000000E+00  0.00000000E+00
  0.00000000E+00  0.00000000E+00  0.00000000E+00
  0.00000000E+00  0.00000000E+00  0.00000000E+00
  0.00000000E+00  0.00000000E+00  0.00000000E+00
  0.00000000E+00  0.00000000E+00  0.00000000E+00
  0.00000000E+00  0.00000000E+00  0.00000000E+00
  0.00000000E+00  0.00000000E+00  0.00000000E+00
  0.00000000E+00  0.00000000E+00  0.00000000E+00
  0.00000000E+00  0.00000000E+00  0.00000000E+00
  0.00000000E+00  0.00000000E+00  0.00000000E+00
  0.00000000E+00  0.00000000E+00  0.00000000E+00
  0.00000000E+00  0.00000000E+00  0.00000000E+00
  0.00000000E+00  0.00000000E+00  0.00000000E+00
  0.00000000E+00  0.00000000E+00  0.00000000E+00
