generated by pypospack
   4.98831
  1.397851   0.008448   0.002212
  0.012556   2.047490   0.001002
  0.003359   0.000943   2.058502
 Hf Zr Nb Ta
 8 10 10 8
Direct
  0.002876   0.333463   0.005436
  0.975487   0.663723   0.992092
  0.238059   0.810588   0.175293
  0.768008   0.167017   0.498496
  0.480329   0.996102   0.668154
  0.765049   0.843293   0.182296
  0.774349   0.842425   0.497144
  0.232182   0.501086   0.500382
  0.746011   0.168059   0.828023
  0.024717   0.000134   0.993710
  0.231336   0.179863   0.501927
  0.256023   0.502098   0.171575
  0.485677   0.997492   0.992002
  0.746426   0.161072   0.173442
  0.470821   0.992681   0.341592
  0.735951   0.488623   0.820383
  0.521769   0.675212   0.996724
  0.497791   0.678894   0.657771
  0.260375   0.493217   0.828663
  0.987595   0.339802   0.319734
 -0.002194   0.333159   0.675402
  0.973652   0.655392   0.337273
  0.225096   0.824831   0.498808
  0.235402   0.820282   0.828344
  0.492155   0.325316   0.010539
  0.739500   0.496268   0.178481
  0.769736   0.843921   0.815144
 -0.001827   0.674669   0.672079
  0.261328   0.181223   0.174220
  0.038144   0.004322   0.331939
  0.027368   0.994454   0.674093
  0.255761   0.183491   0.823712
  0.510197   0.344280   0.341935
  0.759314   0.495767   0.501474
  0.498537   0.327972   0.648380
  0.517009   0.659809   0.343330
