generated by pypospack                  
   4.98831000000000     
     1.3791711652805811   -0.0019569261653042    0.0005470678334058
    -0.0029646320232535    2.0531750871075176   -0.0027196794204544
     0.0007619652656421   -0.0026945434873852    2.0694389902360006
   Ta   Zr   Hf   Nb
    10     9     9     8
Direct
  0.9948241247291164  0.3335564512947770  0.0011230379876463
  0.9849683803229952  0.9972955514559031  0.3408193337145525
  0.2499607858036647  0.4867001951583615  0.1442777715389106
  0.9972066990974522  0.3332585897305851  0.6971771021669562
  0.2483637840978879  0.4950556947645716  0.8355994168490725
  0.2313315604562697  0.8514030695739024  0.1901072229057240
  0.2469116097242723  0.8369172906712204  0.4917686752776832
  0.7396376896869330  0.1738923354866687  0.1534456697799921
  0.4990464496457174  0.9783163971093983  0.6596680285550022
  0.7496678692177476  0.4909711548694337  0.1482613510039218
  0.7285430918954577  0.1685516100256337  0.8364535392442096
  0.9938047217354627  0.9930846674166128  0.9955621664127494
  0.2546045261758055  0.1711315623228728  0.5072013933874493
  0.2666685889640972  0.1718717170463083  0.8347520748938455
  0.0053867488680948  0.6675906143872888  0.9989658010927019
  0.7425805771845669  0.1747590558707039  0.5132217775744412
  0.5025568591044632  0.3453659586634654  0.3267176943431915
  0.7694108515537784  0.4982652020368902  0.5140671614888734
  0.4990008916245321  0.6724665789433479  0.6669569347538579
  0.2578851529512194  0.1637726390781700  0.1611408908149586
  0.9975879030970404  0.9923531448369453  0.6624553457584473
  0.9934929459099381  0.3363338634860761  0.3145868713787461
  0.2292338406397623  0.4949047306964102  0.5191632240032155
  0.0044667826736416  0.6629087510562254  0.3258509672643137
  0.5069783745716904  0.9739288592478355  0.0078713402558600
  0.5229397499398298  0.9967984163346186  0.3298073945914654
  0.4993498753513150  0.6696230772187840  0.0016591557325641
  0.4982369700883807  0.6684346138750409  0.3216432408116022
  0.7747075753702842  0.8327429404107268  0.1751171312107932
  0.0021256876077388  0.6769018486672392  0.6728562320787302
  0.2481318491748570  0.8305128365864364  0.8168325574026816
  0.5032292906570945  0.3449627752056443  0.0011722447995076
  0.5018482998766829  0.3570182231931128  0.6768706709708152
  0.7496682803979449  0.4964699741408886  0.8364964104759991
  0.7545826959002835  0.8315902135663820  0.4989365022888088
  0.7510619159039821  0.8302893955715305  0.8213886671907223
 
  0.00000000E+00  0.00000000E+00  0.00000000E+00
  0.00000000E+00  0.00000000E+00  0.00000000E+00
  0.00000000E+00  0.00000000E+00  0.00000000E+00
  0.00000000E+00  0.00000000E+00  0.00000000E+00
  0.00000000E+00  0.00000000E+00  0.00000000E+00
  0.00000000E+00  0.00000000E+00  0.00000000E+00
  0.00000000E+00  0.00000000E+00  0.00000000E+00
  0.00000000E+00  0.00000000E+00  0.00000000E+00
  0.00000000E+00  0.00000000E+00  0.00000000E+00
  0.00000000E+00  0.00000000E+00  0.00000000E+00
  0.00000000E+00  0.00000000E+00  0.00000000E+00
  0.00000000E+00  0.00000000E+00  0.00000000E+00
  0.00000000E+00  0.00000000E+00  0.00000000E+00
  0.00000000E+00  0.00000000E+00  0.00000000E+00
  0.00000000E+00  0.00000000E+00  0.00000000E+00
  0.00000000E+00  0.00000000E+00  0.00000000E+00
  0.00000000E+00  0.00000000E+00  0.00000000E+00
  0.00000000E+00  0.00000000E+00  0.00000000E+00
  0.00000000E+00  0.00000000E+00  0.00000000E+00
  0.00000000E+00  0.00000000E+00  0.00000000E+00
  0.00000000E+00  0.00000000E+00  0.00000000E+00
  0.00000000E+00  0.00000000E+00  0.00000000E+00
  0.00000000E+00  0.00000000E+00  0.00000000E+00
  0.00000000E+00  0.00000000E+00  0.00000000E+00
  0.00000000E+00  0.00000000E+00  0.00000000E+00
  0.00000000E+00  0.00000000E+00  0.00000000E+00
  0.00000000E+00  0.00000000E+00  0.00000000E+00
  0.00000000E+00  0.00000000E+00  0.00000000E+00
  0.00000000E+00  0.00000000E+00  0.00000000E+00
  0.00000000E+00  0.00000000E+00  0.00000000E+00
  0.00000000E+00  0.00000000E+00  0.00000000E+00
  0.00000000E+00  0.00000000E+00  0.00000000E+00
  0.00000000E+00  0.00000000E+00  0.00000000E+00
  0.00000000E+00  0.00000000E+00  0.00000000E+00
  0.00000000E+00  0.00000000E+00  0.00000000E+00
  0.00000000E+00  0.00000000E+00  0.00000000E+00
