generated by pypospack                  
   4.98831000000000     
     1.3843926279877858    0.0000146518815663   -0.0013892056065917
     0.0000468436970746    2.0621918162281196   -0.0034452054018088
    -0.0020500673167656   -0.0034013085050834    2.0602376439734633
   Hf   Zr   Nb   Ta
    11     8     9     8
Direct
  0.4720645171774809  0.3422319044269437  0.9876285345970914
  0.0124286882111232  0.9891871210524338  0.9999811309618410
  0.2411565159443193  0.1767070608810409  0.1856502554687745
  0.0048504509072031  0.3340046733811184  0.6594768446771035
  0.2385470133065412  0.8324557956004318  0.5035904405170284
  0.7560423502987377  0.1808024613786977  0.1659570135346345
  0.5064282243903974  0.9935032139389132  0.3291216786416891
  0.7404116606663120  0.1605490911139086  0.8353873079995835
  0.7561897363757740  0.5093772768091531  0.8374291060694410
  0.5033191883264244  0.6704722294104228  0.3295217432054798
  0.7593880388563501  0.4928128417049660  0.1663520790799801
  0.2793808078495122  0.1417329601513014  0.8177899394239098
  0.0340028170751851  0.3309200080312656  0.9774223627440772
  0.2359489835448464  0.4941166293888224  0.1792338637120139
  0.4949561545716409  0.9813759726978623  0.0199694458693081
  0.4968469259054611  0.3386577378763386  0.6593005943332846
  0.4891385935157063  0.6762290586006834  0.0100612065776871
  0.7593001167504998  0.8316553520419665  0.5083671681082358
  0.7505448485035090  0.8344742881359493  0.8219959499527448
  0.9899117629111377  0.0051080957899474  0.3343710546993618
  0.2477050441426177  0.1621314343252936  0.4914052678327297
  0.0046095754963169  0.0099586244921876  0.6639552172637696
  0.9917188814231123  0.6601360392683395  0.3380798153179706
  0.0063261256593920  0.6591875221696538  0.6691774542605119
  0.2450449766959453  0.8281518852731359  0.8166756250298000
  0.7529931284633888  0.1622160733016157  0.4943714716221953
  0.5035667850818552  0.0064210824350818  0.6421337007284024
  0.4889624290800024  0.6580498264792470  0.6622720556339526
  0.9887184880183441  0.3345303612273799  0.3610572809770097
  0.2444936570033436  0.5084199877302252  0.4976960597663457
  0.2422927820619104  0.5234587009975114  0.8237646377160666
  0.0100995647042366  0.6765294095720791  0.9990589699904754
  0.2105299211587389  0.8270249856687500  0.1859126677616079
  0.5062430335211006  0.3368909390019507  0.3529718984368572
  0.7510431816547798  0.5067356633575671  0.5000548164699120
  0.7847950307467465  0.8237846922878030  0.1728033410191140
 
  0.00000000E+00  0.00000000E+00  0.00000000E+00
  0.00000000E+00  0.00000000E+00  0.00000000E+00
  0.00000000E+00  0.00000000E+00  0.00000000E+00
  0.00000000E+00  0.00000000E+00  0.00000000E+00
  0.00000000E+00  0.00000000E+00  0.00000000E+00
  0.00000000E+00  0.00000000E+00  0.00000000E+00
  0.00000000E+00  0.00000000E+00  0.00000000E+00
  0.00000000E+00  0.00000000E+00  0.00000000E+00
  0.00000000E+00  0.00000000E+00  0.00000000E+00
  0.00000000E+00  0.00000000E+00  0.00000000E+00
  0.00000000E+00  0.00000000E+00  0.00000000E+00
  0.00000000E+00  0.00000000E+00  0.00000000E+00
  0.00000000E+00  0.00000000E+00  0.00000000E+00
  0.00000000E+00  0.00000000E+00  0.00000000E+00
  0.00000000E+00  0.00000000E+00  0.00000000E+00
  0.00000000E+00  0.00000000E+00  0.00000000E+00
  0.00000000E+00  0.00000000E+00  0.00000000E+00
  0.00000000E+00  0.00000000E+00  0.00000000E+00
  0.00000000E+00  0.00000000E+00  0.00000000E+00
  0.00000000E+00  0.00000000E+00  0.00000000E+00
  0.00000000E+00  0.00000000E+00  0.00000000E+00
  0.00000000E+00  0.00000000E+00  0.00000000E+00
  0.00000000E+00  0.00000000E+00  0.00000000E+00
  0.00000000E+00  0.00000000E+00  0.00000000E+00
  0.00000000E+00  0.00000000E+00  0.00000000E+00
  0.00000000E+00  0.00000000E+00  0.00000000E+00
  0.00000000E+00  0.00000000E+00  0.00000000E+00
  0.00000000E+00  0.00000000E+00  0.00000000E+00
  0.00000000E+00  0.00000000E+00  0.00000000E+00
  0.00000000E+00  0.00000000E+00  0.00000000E+00
  0.00000000E+00  0.00000000E+00  0.00000000E+00
  0.00000000E+00  0.00000000E+00  0.00000000E+00
  0.00000000E+00  0.00000000E+00  0.00000000E+00
  0.00000000E+00  0.00000000E+00  0.00000000E+00
  0.00000000E+00  0.00000000E+00  0.00000000E+00
  0.00000000E+00  0.00000000E+00  0.00000000E+00
