generated by pypospack
   4.98831
  1.407880   0.004840  -0.006813
  0.007055   2.070294  -0.004341
 -0.010166  -0.004410   2.066439
 Ta Hf Zr Nb
 9 9 14 4
Direct
  0.743551   0.832866   0.823984
  0.759083   0.842422   0.175130
  0.007829   0.986795   0.332180
  0.282002   0.497339   0.146342
  0.241464   0.837237   0.175851
  0.485879   0.987178   0.661324
  0.725674   0.509888   0.155724
  0.777198   0.155741   0.484717
  0.503790   0.672774   0.998361
  0.965840   0.319753   0.682564
  0.749237   0.152538   0.173659
  0.000207   0.000962   0.676179
  0.225461   0.501664   0.515312
  0.013453   0.666895   0.314464
  0.490102   0.965633   0.003798
  0.492247   0.996724   0.343319
  0.528480   0.332239   0.649711
  0.981368   0.339607   0.003645
 -0.000014   0.348084   0.315698
  0.491455   0.670253   0.328562
  0.711163   0.153476   0.846179
  0.004204   0.993201  -0.004830
  0.224738   0.168665   0.503664
  0.273485   0.172633   0.835616
  0.996876   0.668260   0.002541
  0.510154   0.336513   0.340315
  0.786185   0.515542   0.505388
  0.496394   0.672387   0.666420
  0.763594   0.832947   0.503032
  0.254894   0.496175   0.834047
  0.266153   0.171893   0.154986
  0.235140   0.834528   0.502138
  0.002801   0.679771   0.683836
  0.248775   0.824825   0.823427
  0.522247   0.353197   0.002533
  0.738893   0.509399   0.840199
