generated by pypospack
   4.98831
  1.411342   0.004167   0.014446
  0.006233   2.062904  -0.000264
  0.020984  -0.000322   2.068106
 Hf Ta Zr Nb
 11 9 12 4
Direct
  0.498510   0.676191   0.008653
  0.476390  -0.001000   0.650578
  0.291091   0.172448   0.854900
  0.000044   0.998703   0.999200
  0.024979  -0.000169   0.683391
 -0.004806   0.666966   0.316689
  0.515394   0.993403   0.335778
  0.488585   0.330912   0.644225
  0.977204   0.324587   0.000403
  0.752241   0.511670   0.835902
  0.464281   0.674197   0.653557
  0.003782   0.676497   0.011501
  0.745141   0.830176   0.155886
  0.971114   0.993904   0.318193
  0.249262   0.837591   0.167544
  0.770958   0.154499   0.500683
  0.218765   0.504773   0.501084
  0.041888   0.676970   0.674030
  0.738019   0.512222   0.148593
  0.221443   0.837416   0.482284
  0.723272   0.162570   0.830091
  0.511406   0.336523   0.340184
  0.018945   0.322741   0.675552
  0.262260   0.494940   0.154730
  0.970984   0.339248   0.324483
  0.495430   0.666509   0.336462
  0.213400   0.158176   0.476060
  0.782499   0.513382   0.524158
  0.774486   0.834725   0.513106
  0.263171   0.498362   0.844493
  0.258799   0.163298   0.166187
  0.748462   0.825237   0.832863
  0.733646   0.160068   0.164303
  0.259322   0.828310   0.849418
  0.537146   0.336958   0.011744
  0.502468   0.987002   0.013085
