generated by pypospack
   4.98831
  1.399952   0.003708  -0.004077
  0.005433   2.050645   0.005616
 -0.006002   0.005490   2.054217
 Ta Nb Zr Hf
 6 11 11 8
Direct
  0.234056   0.171240   0.832903
  0.733317   0.496920   0.177360
  0.531527   0.667853   0.011863
  0.044022   0.005073   0.657510
  0.515120   0.670091   0.338883
  0.766269   0.498342   0.488205
  0.006050   0.994255   0.330854
  0.490554   0.989905   0.345820
  0.742812   0.829890   0.186242
  0.235450   0.170454   0.489465
  0.504725   0.339192   0.349993
  0.265180   0.498167   0.845147
  0.985692   0.335499   0.325549
  0.016996   0.339007   0.668350
  0.984952   0.671990   0.327368
  0.244068   0.832615   0.484233
  0.478850   0.335664   0.988171
  0.263070   0.166700   0.174359
  0.982971   0.005079   0.016118
  0.760686   0.163811   0.501397
  0.766319   0.169561   0.820320
  0.259958   0.504879   0.171212
  0.517865   0.996912   0.993061
  0.722948   0.179068   0.177471
  0.737044   0.490531   0.831309
  0.489907   0.662804   0.653023
  0.483006   0.331975   0.659725
  0.767605   0.839224   0.812469
  0.004599   0.337859   0.003552
  0.970652   0.660629   0.006870
  0.259212   0.828061   0.168491
  0.467284   0.002553   0.662186
  0.763740   0.839174   0.503403
  0.231322   0.497102   0.476331
  0.023058   0.652138   0.668837
  0.249121   0.825785   0.851944
