generated by pypospack                  
   4.98831000000000     
     1.3837920839718554   -0.0001164739911373    0.0081394724729986
    -0.0001251298614777    2.0575965314510971   -0.0028947056534730
     0.0118277099907292   -0.0030998076873960    2.0404630911177812
   Ta   Zr   Hf   Nb
     7     8     9    12
Direct
  0.2633227044937403  0.5029082515797422  0.1707724799177291
  0.7312416376920834  0.4942289272873151  0.1791300083267857
  0.0331951430483965 -0.0023894124853775  0.6729336767696894
  0.5053975493088442  0.6650390448456556  0.3425879585479600
  0.7685706680852925  0.5040533280248324  0.4923736231452934
  0.9907927716368338  0.6641443301785233  0.3240238413899914
  0.4809364187726247  0.0137542601324053  0.0005722685505301
  0.0095583017229533  0.0051489471037443  0.0046209621618282
  0.7661839636135033  0.1661803191159096  0.4968412009257629
  0.7485681992744748  0.1652713736683746  0.8306117295943474
  0.7333741360585601  0.1682869678642373  0.1725085948017250
  0.4920148112563096  0.3334173343325939  0.6572075770105099
  0.7528747940887083  0.8370958106245830  0.8258404124363123
  0.2249419133700034  0.4935857101912300  0.4919117851283983
  0.7524453041201344  0.4992375130747128  0.8260239262214757
  0.4939713766898240  0.6657722773908665  0.6437507744021177
  0.2612216436217473  0.5101269477531631  0.8445405378797884
  0.2291949320425835  0.1676218374125312  0.4854696347411698
  0.0107522623703396  0.3336466807773681  0.0057833663807019
  0.9728026563188201  0.6619335574681589  0.0212824772072314
  0.2647068465078296  0.8270229580513189  0.1656415701492575
  0.4737815820265887  0.0004107775064012  0.6594988564516837
  0.7687623917915120  0.8376218149529764  0.4979742710279919
  0.2631598959179274  0.8218032273264725  0.8450209108505354
  0.2569222651279800  0.1670021279941449  0.1762353879231254
  0.0133666162686120  0.6728404048218285  0.6580312598232022
  0.5318681811372625  0.6618129416313573  0.0142106559902824
 -0.0005698294660649  0.9912583166776733  0.3186610341285797
  0.4959193681434484  0.9913514034818668  0.3375732586108683
  0.7344010574556213  0.8359255832771799  0.1806125299674483
  0.4979150885002779  0.3430746313812003  0.3344732964040507
 -0.0053000738101875  0.3431076431466673  0.3131781954984265
  0.0155194175653154  0.3281002238961739  0.6830505414183314
  0.2346235683496439  0.8343192105191000  0.4867988669981841
  0.4830218909982278  0.3255423415449423  0.0062494747192916
  0.2505305459002323  0.1697493874501185  0.8339970544993853
 
  0.00000000E+00  0.00000000E+00  0.00000000E+00
  0.00000000E+00  0.00000000E+00  0.00000000E+00
  0.00000000E+00  0.00000000E+00  0.00000000E+00
  0.00000000E+00  0.00000000E+00  0.00000000E+00
  0.00000000E+00  0.00000000E+00  0.00000000E+00
  0.00000000E+00  0.00000000E+00  0.00000000E+00
  0.00000000E+00  0.00000000E+00  0.00000000E+00
  0.00000000E+00  0.00000000E+00  0.00000000E+00
  0.00000000E+00  0.00000000E+00  0.00000000E+00
  0.00000000E+00  0.00000000E+00  0.00000000E+00
  0.00000000E+00  0.00000000E+00  0.00000000E+00
  0.00000000E+00  0.00000000E+00  0.00000000E+00
  0.00000000E+00  0.00000000E+00  0.00000000E+00
  0.00000000E+00  0.00000000E+00  0.00000000E+00
  0.00000000E+00  0.00000000E+00  0.00000000E+00
  0.00000000E+00  0.00000000E+00  0.00000000E+00
  0.00000000E+00  0.00000000E+00  0.00000000E+00
  0.00000000E+00  0.00000000E+00  0.00000000E+00
  0.00000000E+00  0.00000000E+00  0.00000000E+00
  0.00000000E+00  0.00000000E+00  0.00000000E+00
  0.00000000E+00  0.00000000E+00  0.00000000E+00
  0.00000000E+00  0.00000000E+00  0.00000000E+00
  0.00000000E+00  0.00000000E+00  0.00000000E+00
  0.00000000E+00  0.00000000E+00  0.00000000E+00
  0.00000000E+00  0.00000000E+00  0.00000000E+00
  0.00000000E+00  0.00000000E+00  0.00000000E+00
  0.00000000E+00  0.00000000E+00  0.00000000E+00
  0.00000000E+00  0.00000000E+00  0.00000000E+00
  0.00000000E+00  0.00000000E+00  0.00000000E+00
  0.00000000E+00  0.00000000E+00  0.00000000E+00
  0.00000000E+00  0.00000000E+00  0.00000000E+00
  0.00000000E+00  0.00000000E+00  0.00000000E+00
  0.00000000E+00  0.00000000E+00  0.00000000E+00
  0.00000000E+00  0.00000000E+00  0.00000000E+00
  0.00000000E+00  0.00000000E+00  0.00000000E+00
  0.00000000E+00  0.00000000E+00  0.00000000E+00
