generated by pypospack
   4.98831
  1.393299   0.000558   0.008724
  0.000849   2.055284  -0.000707
  0.012762  -0.000924   2.041445
 Hf Nb Zr Ta
 10 11 8 7
Direct
  0.267231   0.504830   0.166927
  0.492630   0.665784   0.646008
  0.261627   0.508491   0.844697
  0.228325   0.168508   0.484409
  0.006034   0.330913   0.004630
  0.967382   0.664254   0.019554
  0.264412   0.826185   0.166109
  0.470703  -0.000819   0.659125
  0.769201   0.839335   0.501064
  0.262462   0.820270   0.847605
  0.254218   0.166920   0.177522
  0.018674   0.671355   0.657466
  0.540662   0.667760   0.009269
  0.999060   0.990774   0.319025
  0.733005   0.837347   0.181309
  0.504598   0.341859   0.341312
  0.985021   0.342051   0.315508
  0.016428   0.329299   0.681582
  0.235603   0.833940   0.486234
  0.486427   0.317537   0.001021
  0.248476   0.169270   0.833778
  0.009957   0.005388   0.005597
  0.766059   0.164602   0.498621
  0.750164   0.163401   0.828227
  0.731554   0.167902   0.173476
  0.491100   0.333610   0.656653
  0.756625   0.838594   0.823169
  0.225941   0.495098   0.489676
  0.754461   0.497899   0.824138
  0.727697   0.495213   0.178625
  0.036993   0.997828   0.672931
  0.512339   0.667743   0.345553
  0.769184   0.503612   0.494043
  0.981955   0.667271   0.325465
  0.479856   0.014532   0.000845
  0.493930   0.991452   0.338821
