generated by pypospack                  
   4.98831000000000     
     1.4094813990967625    0.0041055901022134    0.0143989327266081
     0.0061116560362135    2.0680217689520011   -0.0010961282529849
     0.0209286422457221   -0.0011985840214004    2.0668145228947847
   Zr   Hf   Ta   Nb
    13     9    10     4
Direct
  0.7260151222977275  0.1624254510562312  0.8290186845656171
  0.5116727938348495  0.3364954465703666  0.3401029122508248
  0.0198519960632380  0.3239014170807026  0.6751290071666289
  0.2619519912666744  0.4948410535729170  0.1547130788020598
  0.9708639293713808  0.3388729986344444  0.3245039467430745
  0.4954496915528572  0.6666910669162062  0.3363845390525459
  0.2144641919781893  0.1587211253752788  0.4763144137412528
  0.7824342014378964  0.5133330550002713  0.5236877579556558
  0.7746880679363276  0.8344911981446885  0.5130182650813365
  0.2621296778765754  0.5003608184958380  0.8442836895715219
  0.2578780484149750  0.1626078884874320  0.1677816570396823
  0.7478289050889474  0.8257500654919152  0.8330038035431061
  0.2914791795612273  0.1721749176832115  0.8542906555877082
  0.5157558739820165  0.9937948869422408  0.3358683828598735
  0.4765981983557845  0.9976061764072093  0.6503447029982057
 -0.0001769260300300  0.9977872567607885  0.0000939368009326
  0.0256910461637407  0.9990553428059055  0.6827123684102624
  0.9949867420880650  0.6668538053708161  0.3166760038575958
  0.4892608848330300  0.3322100985858334  0.6438353982248608
  0.9773771547896554  0.3252448839360896  0.0011873104090807
  0.7522283555268610  0.5111888916553230  0.8356020998824267
  0.4646748198988769  0.6742098408841091  0.6534261074801052
  0.4982704589199329  0.6760124036071403  0.0089896687668292
  0.0033639731461876  0.6764323198996185  0.0115750244633640
  0.7447287552740206  0.8299440046843111  0.1556274899928972
  0.9704185878957095  0.9941576375589042  0.3188792851653613
  0.2488735597098316  0.8377763504048801  0.1679323421715992
  0.7707194966319343  0.1549123301554717  0.5023572746038006
  0.2190347489510527  0.5049058829358515  0.5007199889151243
  0.0413067578580766  0.6768050919329835  0.6735459552154289
  0.7378675378407276  0.5122156135706639  0.1485235007278631
  0.2212624219198988  0.8369909833092252  0.4821529350483751
  0.7331061855480230  0.1601583329196656  0.1633113826555954
  0.2588539906809252  0.8268926494172419  0.8497554329845374
  0.5366401820817097  0.3372699129327837  0.0113338622269592
  0.5024333972531015  0.9869168008134473  0.0133091350378850
 
  0.00000000E+00  0.00000000E+00  0.00000000E+00
  0.00000000E+00  0.00000000E+00  0.00000000E+00
  0.00000000E+00  0.00000000E+00  0.00000000E+00
  0.00000000E+00  0.00000000E+00  0.00000000E+00
  0.00000000E+00  0.00000000E+00  0.00000000E+00
  0.00000000E+00  0.00000000E+00  0.00000000E+00
  0.00000000E+00  0.00000000E+00  0.00000000E+00
  0.00000000E+00  0.00000000E+00  0.00000000E+00
  0.00000000E+00  0.00000000E+00  0.00000000E+00
  0.00000000E+00  0.00000000E+00  0.00000000E+00
  0.00000000E+00  0.00000000E+00  0.00000000E+00
  0.00000000E+00  0.00000000E+00  0.00000000E+00
  0.00000000E+00  0.00000000E+00  0.00000000E+00
  0.00000000E+00  0.00000000E+00  0.00000000E+00
  0.00000000E+00  0.00000000E+00  0.00000000E+00
  0.00000000E+00  0.00000000E+00  0.00000000E+00
  0.00000000E+00  0.00000000E+00  0.00000000E+00
  0.00000000E+00  0.00000000E+00  0.00000000E+00
  0.00000000E+00  0.00000000E+00  0.00000000E+00
  0.00000000E+00  0.00000000E+00  0.00000000E+00
  0.00000000E+00  0.00000000E+00  0.00000000E+00
  0.00000000E+00  0.00000000E+00  0.00000000E+00
  0.00000000E+00  0.00000000E+00  0.00000000E+00
  0.00000000E+00  0.00000000E+00  0.00000000E+00
  0.00000000E+00  0.00000000E+00  0.00000000E+00
  0.00000000E+00  0.00000000E+00  0.00000000E+00
  0.00000000E+00  0.00000000E+00  0.00000000E+00
  0.00000000E+00  0.00000000E+00  0.00000000E+00
  0.00000000E+00  0.00000000E+00  0.00000000E+00
  0.00000000E+00  0.00000000E+00  0.00000000E+00
  0.00000000E+00  0.00000000E+00  0.00000000E+00
  0.00000000E+00  0.00000000E+00  0.00000000E+00
  0.00000000E+00  0.00000000E+00  0.00000000E+00
  0.00000000E+00  0.00000000E+00  0.00000000E+00
  0.00000000E+00  0.00000000E+00  0.00000000E+00
  0.00000000E+00  0.00000000E+00  0.00000000E+00
