generated by pypospack
   4.98831
  1.404858   0.009619   0.003522
  0.014085   2.050133   0.000110
  0.005236  -0.000074   2.058717
 Zr Hf Ta Nb
 8 12 5 11
Direct
  0.774436   0.843967   0.497960
  0.014667   0.006011   0.007842
  0.769927   0.165032   0.496290
  0.734950   0.172733   0.171825
  0.492620   0.331503   0.654392
  0.772121   0.840335   0.824175
  0.234527   0.506941   0.494536
  0.733592   0.490718   0.840312
  0.756761   0.167699   0.830948
  0.486034   0.002553   0.998131
  0.270352   0.507761   0.169222
  0.525904   0.668195   0.652351
  0.254012   0.508367   0.838024
  0.236024   0.164913   0.483028
  0.012883   0.333227   0.008719
  0.966477   0.660410   0.019139
  0.258441   0.820200   0.174775
  0.474256   0.999826   0.669673
  0.240051   0.810921   0.833749
  0.237649   0.831199   0.489973
  0.724290   0.493928   0.174035
  0.043808   0.011612   0.677818
  0.526655   0.666836   0.341605
  0.766645   0.495206   0.491285
  0.970494   0.658821   0.321410
  0.258450   0.169726   0.183382
  0.972874   0.652042   0.661839
  0.527828   0.677899   0.008339
  0.737090   0.835169   0.176488
  0.506953   0.341469   0.345611
  0.992497   0.343726   0.321915
  0.008985   0.334500   0.674027
  0.473612   0.317314   0.001420
  0.242246   0.179383   0.829242
  0.503493   0.992428   0.327462
  0.998393   0.997434   0.309058
